LAMMPS (7 Feb 2024 - Update 1)
OMP_NUM_THREADS environment is not set. Defaulting to 1 thread. (src/comm.cpp:98)
  using 1 OpenMP thread(s) per MPI task

clear
OMP_NUM_THREADS environment is not set. Defaulting to 1 thread. (src/comm.cpp:98)
  using 1 OpenMP thread(s) per MPI task
units metal
dimension 3
boundary p p p
atom_style atomic

read_data npt_300k_0bar.data
Reading data file ...
  triclinic box = (-0.00045927799 -0.00039783553 -0.14992607) to (29.500459 25.548147 46.949926) with tilt (-14.750432 1.3214634e-15 7.4773706e-16)
WARNING: Triclinic box skew is large. LAMMPS will run inefficiently. (src/domain.cpp:219)
  1 by 1 by 1 MPI processor grid
  reading atoms ...
  2000 atoms
  reading velocities ...
  2000 velocities
  read_data CPU = 0.014 seconds

pair_style eam/fs
pair_coeff * * Ti1.eam.fs Ti

neighbor 2.0 bin
neigh_modify every 1 delay 0 check yes

timestep 0.001                     # ps (1 fs)

thermo 1000
thermo_style custom step temp pe ke etotal press pxx pyy pzz lx ly lz xy

# Initial box
variable Lz0 equal $(lz)
variable Lz0 equal 47.099852142346747996

# Strain settings
variable rate equal 0.001           # 1/ps  (1e9 1/s)
variable target_strain equal -0.10
variable nsteps equal round(abs(v_target_strain/v_rate)/dt)

# Thermostat + lateral barostat (x, y at 0 bar), z controlled by deform
fix BARO all npt temp 300.0 300.0 0.1 x 0.0 0.0 1.0 y 0.0 0.0 1.0 couple none

# Compress z at constant engineering strain rate
fix DEF all deform 1 z erate -${rate} units box remap x
fix DEF all deform 1 z erate -0.001 units box remap x

# Outputs
variable strain_z equal (lz-v_Lz0)/v_Lz0
variable sxx_GPa equal -pxx/10000.0
variable syy_GPa equal -pyy/10000.0
variable szz_GPa equal -pzz/10000.0

fix OUT all print 100 "${strain_z} ${sxx_GPa} ${syy_GPa} ${szz_GPa}"     file z_compressed.data screen no title "# strain_z sxx syy szz (GPa)"

dump TRAJ all custom 1000 ti_z_compressed.lammpstrj id type x y z
dump_modify TRAJ sort id

run ${nsteps}
run 100000
Neighbor list info ...
  update: every = 1 steps, delay = 0 steps, check = yes
  max neighbors/atom: 2000, page size: 100000
  master list distance cutoff = 8.9
  ghost atom cutoff = 8.9
  binsize = 4.45, bins = 10 6 11
  1 neighbor lists, perpetual/occasional/extra = 1 0 0
  (1) pair eam/fs, perpetual
      attributes: half, newton on
      pair build: half/bin/atomonly/newton/tri
      stencil: half/bin/3d/tri
      bin: standard
Per MPI rank memory allocation (min/avg/max) = 3.94 | 3.94 | 3.94 Mbytes
   Step          Temp          PotEng         KinEng         TotEng         Press           Pxx            Pyy            Pzz             Lx             Ly             Lz             Xy      
         0   305.28791     -10622.024      78.883658     -10543.14      -2579.2718     -2321.391      -1856.9607     -3559.4636      29.500919      25.548545      47.099852     -14.750432    
      1000   295.41039     -10621.672      76.331394     -10545.341     -333.42409     -186.11301     -243.79729     -570.36198      29.487564      25.538278      47.052752     -14.744504    
      2000   299.05964     -10622.094      77.274328     -10544.819      2231.7648      1651.3594      2522.222       2521.713       29.488573      25.517602      47.005652     -14.732567    
      3000   305.24574     -10619.219      78.87276      -10540.346     -1341.4018     -2574.2878     -2030.2103      580.29282      29.538293      25.582934      46.958553     -14.770286    
      4000   301.06123     -10622.443      77.791521     -10544.652      3354.9522      2896.3256      1337.5126      5831.0185      29.476714      25.566462      46.911453     -14.760776    
      5000   304.57454     -10620.68       78.699328     -10541.981      736.94502     -761.0733      -1779.0628      4750.9711      29.531242      25.614         46.864353     -14.788222    
      6000   299.46049     -10622.275      77.377903     -10544.897      2128.8603      1084.5883     -1169.6128      6471.6055      29.515221      25.620603      46.817253     -14.792035    
      7000   292.28899     -10619.597      75.524853     -10544.072      2028.3957     -1043.4394     -94.6409        7223.2675      29.560773      25.600543      46.770153     -14.780453    
      8000   309.09892     -10620.354      79.868387     -10540.486      2307.1586     -683.01909     -1035.3151      8639.8101      29.572784      25.624624      46.723053     -14.794356    
      9000   296.97209     -10619.649      76.734925     -10542.914      955.96789     -1684.5795     -3410.9114      7963.3946      29.577155      25.670716      46.675953     -14.820967    
     10000   307.52397     -10620.466      79.461436     -10541.004      3329.7517      1148.8581     -1888.9402      10729.337      29.547698      25.676849      46.628854     -14.824508    
     11000   295.65707     -10617.317      76.395136     -10540.921      4339.6656      1046.488      -227.51106      12200.02       29.582637      25.653812      46.581754     -14.811207    
     12000   298.54602     -10621.417      77.141615     -10544.275      4224.561       87.925276     -54.666779      12640.424      29.612711      25.654798      46.534654     -14.811777    
     13000   307.94814     -10619.279      79.571036     -10539.708      6701.9371      1906.2489      1947.9376      16251.625      29.606825      25.643466      46.487554     -14.805234    
     14000   293.06877     -10619.359      75.726341     -10543.633      6507.7522      921.28907      2108.2709      16493.697      29.634497      25.649464      46.440454     -14.808697    
     15000   295.3536      -10618.552      76.31672      -10542.235      4935.3981     -1256.116       394.21791      15668.092      29.680281      25.662942      46.393354     -14.816479    
     16000   303.88371     -10616.572      78.520824     -10538.051      6149.141      -170.99961      1047.0777      17571.345      29.674071      25.677482      46.346255     -14.824873    
     17000   303.35885     -10617.955      78.385205     -10539.569      7786.2941      2157.0436      1700.9363      19500.902      29.651923      25.688614      46.299155     -14.8313      
     18000   294.64261     -10620.094      76.133009     -10543.961      7733.963       2324.8088      909.95558      19967.125      29.650598      25.720676      46.252055     -14.849811    
     19000   296.95393     -10616.448      76.730232     -10539.718      6303.9447      129.88421     -1148.5174      19930.467      29.683907      25.739624      46.204955     -14.860751    
     20000   302.3911      -10615.85       78.135149     -10537.714      7065.5602     -301.7619      -66.236191      21564.679      29.707319      25.73988       46.157855     -14.860899    
     21000   298.54699     -10617.095      77.141864     -10539.953      9133.8152      1868.4104      1852.7775      23680.258      29.710767      25.726263      46.110755     -14.853037    
     22000   303.15837     -10616.235      78.333404     -10537.902      9604.0279      1237.8356      2646.9682      24927.28       29.744707      25.719732      46.063655     -14.849267    
     23000   298.93419     -10615.58       77.241913     -10538.338      8427.5438     -295.62091      1424.3184      24153.934      29.770923      25.731715      46.016556     -14.856185    
     24000   291.37678     -10616.663      75.289147     -10541.374      7684.7568     -668.75097     -371.61548      24094.637      29.776059      25.776106      45.969456     -14.881814    
     25000   302.63137     -10613.401      78.197231     -10535.204      9206.2732      722.33834      784.47183      26112.009      29.774757      25.781167      45.922356     -14.884736    
     26000   300.23633     -10615.751      77.578374     -10538.172      9462.4895      644.22744      584.91058      27158.331      29.777727      25.798166      45.875256     -14.89455     
     27000   309.06369     -10611.504      79.859285     -10531.645      9864.5637      1301.1633      233.24984      28059.278      29.776303      25.820151      45.828156     -14.907243    
     28000   293.26832     -10614.226      75.777904     -10538.448      6723.3027     -2502.9629     -3088.3823      25761.253      29.825083      25.838917      45.781056     -14.918078    
     29000   289.88987     -10613.573      74.904942     -10538.668      9186.9681     -1042.4476      366.63817      28236.714      29.847789      25.809976      45.733956     -14.901369    
     30000   297.3431      -10611.749      76.830791     -10534.919      11910.206      1362.8406      2705.1739      31662.603      29.832114      25.820639      45.686857     -14.907525    
     31000   300.20835     -10615.698      77.571145     -10538.126      9184.482      -653.02183     -1204.4619      29410.93       29.845491      25.857173      45.639757     -14.928618    
     32000   295.16424     -10611.088      76.267793     -10534.82       8387.2189     -2008.9922     -2584.6154      29755.264      29.861124      25.893608      45.592657     -14.949654    
     33000   306.68011     -10613.342      79.24339      -10534.098      13569.289      3058.1633      3248.2498      34401.454      29.851417      25.844169      45.545557     -14.92111     
     34000   303.32954     -10610.657      78.377633     -10532.279      10680.825     -458.63939     -93.297686      32594.411      29.89826       25.881842      45.498457     -14.94286     
     35000   296.41212     -10612.103      76.590232     -10535.512      9701.956      -1072.1807     -1648.2363      31826.285      29.899484      25.90718       45.451357     -14.957489    
     36000   302.22998     -10609.392      78.093516     -10531.298      12159.444      1092.1333      465.24711      34920.95       29.894961      25.906875      45.404257     -14.957313    
     37000   309.05451     -10612.611      79.856914     -10532.754      9778.3462     -1261.2846     -2066.7495      32663.073      29.913146      25.936119      45.357158     -14.974197    
     38000   295.13526     -10609.307      76.260304     -10533.047      13688.268      1921.9771      2400.7263      36742.1        29.927679      25.893568      45.310058     -14.949631    
     39000   303.98195     -10607.753      78.54621      -10529.207      10133.098     -3250.5522     -878.00879      34527.855      30.0036        25.914914      45.262958     -14.961954    
     40000   298.4333      -10608.626      77.112487     -10531.514      13280.33       697.39799      1658.043       37485.548      29.977219      25.919265      45.215858     -14.964466    
     41000   309.22794     -10608.476      79.901727     -10528.575      11408.627     -601.74462     -1462.0928      36289.719      29.970896      25.973696      45.168758     -14.995893    
     42000   294.76669     -10605.139      76.165067     -10528.974      13523.421      1399.7036      643.6973       38526.862      29.962405      25.981158      45.121658     -15.000201    
     43000   297.3923      -10606.948      76.843503     -10530.105      11050.872     -509.775       -2940.0097      36602.4        29.97142       26.026171      45.074559     -15.026189    
     44000   303.15356     -10605.41       78.332159     -10527.078      12991.103     -680.19753      514.84884      39138.658      30.020201      25.977432      45.027459     -14.99805     
     45000   299.21297     -10603.501      77.313947     -10526.187      14591.686     -96.128312      2812.182       41059.004      30.064833      25.955061      44.980359     -14.985134    
     46000   299.17418     -10604.637      77.303926     -10527.333      10970.601     -3114.1681     -2146.3565      38172.327      30.070277      26.013002      44.933259     -15.018586    
     47000   294.23933     -10603.076      76.028805     -10527.047      14013.593      910.42878     -475.82801      41606.178      30.031461      26.033503      44.886159     -15.030422    
     48000   304.91635     -10600.953      78.787651     -10522.166      16084.455      4403.614      -91.658977      43941.41       29.979878      26.075989      44.839059     -15.054951    
     49000   302.45575     -10601.698      78.151852     -10523.546      14069.119      412.728       -574.57577      42369.203      30.064982      26.056842      44.791959     -15.043897    
     50000   304.15943     -10602.983      78.592069     -10524.391      13448.558     -1474.4311     -41.926458      41862.032      30.112055      26.050173      44.74486      -15.040046    
     51000   293.49023     -10601.336      75.835243     -10525.501      16901.374      1949.438       2925.2398      45829.444      30.108699      26.032419      44.69776      -15.029796    
     52000   303.64144     -10600          78.458225     -10521.542      16626.905      618.57488      2935.6063      46326.534      30.127827      26.042951      44.65066      -15.035877    
     53000   306.14126     -10598.614      79.104156     -10519.51       13834.347     -1356.2095     -1407.1036      44266.354      30.143442      26.099309      44.60356      -15.068415    
     54000   292.83044     -10597.555      75.664758     -10521.891      15424.127      523.39886     -430.10128      46179.083      30.127051      26.112233      44.55646      -15.075876    
     55000   298.0675      -10598.333      77.017968     -10521.315      13281.87      -2436.9888     -2223.8332      44506.433      30.170331      26.125969      44.50936      -15.083807    
     56000   294.41723     -10596.761      76.074772     -10520.687      16661.791      122.04802      1746.2175      48117.106      30.187681      26.094518      44.46226      -15.065649    
     57000   306.74352     -10596.689      79.259773     -10517.429      15849.426      284.31633     -787.21996      48051.183      30.176944      26.149308      44.415161     -15.097282    
     58000   301.82695     -10597.433      77.989377     -10519.443      15713.838      612.84666     -1326.2479      47854.914      30.152544      26.183362      44.368061     -15.116942    
     59000   307.84423     -10595.072      79.544188     -10515.528      17569.357      2455.9491     -555.81794      50807.939      30.16712       26.186989      44.320961     -15.119037    
     60000   306.65888     -10596.743      79.237905     -10517.505      17816.395      1482.8065      983.10494      50983.274      30.200259      26.17246       44.273861     -15.110649    
     61000   299.22459     -10594.773      77.31695      -10517.456      16405.916     -1146.0244     -57.294368      50421.066      30.250689      26.164805      44.226761     -15.106229    
     62000   305.10752     -10592.527      78.837046     -10513.69       18186.746     -300.7986       1806.9125      53054.125      30.269957      26.165688      44.179661     -15.106739    
     63000   294.02964     -10591.591      75.974621     -10515.616      20240.25       2275.5099      3115.7721      55329.469      30.261723      26.174201      44.132561     -15.111653    
     64000   302.11762     -10593.646      78.064482     -10515.582      21183.619      4013.5639      2947.1628      56590.129      30.245262      26.205317      44.085462     -15.129619    
     65000   297.36598     -10591.202      76.836701     -10514.365      19291.409      1338.1056      851.97822      55684.144      30.269727      26.232528      44.038362     -15.145329    
     66000   297.80235     -10589.905      76.949456     -10512.955      18803.233      731.55805     -281.28857      55959.431      30.285728      26.245624      43.991262     -15.15289     
     67000   293.09348     -10589.93       75.732725     -10514.198      17558.134     -2195.6022     -485.65647      55355.661      30.357318      26.228642      43.944162     -15.143085    
     68000   293.68764     -10588.137      75.886252     -10512.251      17443.098     -3141.5389     -392.7619       55863.594      30.388745      26.224683      43.897062     -15.1408      
     69000   301.66446     -10586.217      77.947391     -10508.269      20601.683      355.97569      1493.6519      59955.421      30.353625      26.25406       43.849962     -15.15776     
     70000   292.56628     -10585.067      75.596503     -10509.47       21314.035      2332.5803      423.12024      61186.405      30.323597      26.298753      43.802862     -15.183564    
     71000   298.78253     -10587.315      77.202726     -10510.112      18929.138      425.98511     -2832.4233      59193.853      30.328566      26.335199      43.755763     -15.204606    
     72000   300.14151     -10585.39       77.553873     -10507.836      23624.4        3826.9159      2270.2791      64776.006      30.336758      26.317904      43.708663     -15.194621    
     73000   302.22498     -10582.995      78.092223     -10504.903      19590.14      -1833.7698     -1567.2026      62171.392      30.411494      26.324116      43.661563     -15.198207    
     74000   300.55073     -10581.984      77.659612     -10504.324      24091.408      2026.0119      3283.2918      66964.921      30.411468      26.308363      43.614463     -15.189112    
     75000   307.5939      -10583.647      79.479505     -10504.167      21934.062     -1004.2005      1293.103       65513.285      30.445546      26.323789      43.567363     -15.198018    
     76000   305.77975     -10580.426      79.010743     -10501.415      23066.703      614.261        893.49218      67692.355      30.43502       26.360024      43.520263     -15.218939    
     77000   300.46825     -10579.399      77.638301     -10501.761      23398.292      2210.7798     -1027.854       69011.949      30.383681      26.41761       43.473164     -15.252186    
     78000   301.97922     -10580.579      78.028723     -10502.551      20880.544     -1111.6771     -3287.1368      67040.447      30.428133      26.428013      43.426064     -15.258192    
     79000   310.53433     -10575.73       80.239285     -10495.49       24236.481      311.60521      228.05961      72169.779      30.467955      26.40648       43.378964     -15.24576     
     80000   299.37339     -10577.195      77.3554       -10499.84       22726.084     -1654.0156     -1197.2463      71029.513      30.505739      26.409029      43.331864     -15.247232    
     81000   299.45594     -10574.25       77.376729     -10496.874      25878.579      602.54643      1295.0828      75738.109      30.52338       26.395737      43.284764     -15.239557    
     82000   305.20822     -10572.98       78.863066     -10494.117      24313.706     -2240.4439      173.39045      75008.172      30.568421      26.406989      43.237664     -15.246053    
     83000   301.87434     -10571.497      78.00162      -10493.495      25327.801     -1493.8608      211.73998      77265.523      30.565016      26.432888      43.190564     -15.261007    
     84000   296.8991      -10570.708      76.716065     -10493.992      28669.094      3138.1179      1655.5096      81213.653      30.506873      26.471707      43.143465     -15.283419    
     85000   295.41489     -10567.988      76.332558     -10491.656      26071.551     -30.078031     -1829.9772      80074.709      30.542329      26.500086      43.096365     -15.299803    
     86000   298.134       -10567.423      77.03515      -10490.388      30691.323      3217.9259      3421.7238      85434.318      30.569767      26.467424      43.049265     -15.280946    
     87000   298.10856     -10569.027      77.028578     -10491.998      26236.894     -2770.1424     -639.72416      82120.549      30.625495      26.478804      43.002165     -15.287516    
     88000   302.97044     -10566.848      78.284845     -10488.563      24966.07      -3309.9255     -3945.7751      82153.912      30.639331      26.512704      42.955065     -15.307088    
     89000   303.90372     -10564.469      78.525995     -10485.943      31993.236      1711.0163      3622.2955      90646.397      30.630067      26.49222       42.907965     -15.295262    
     90000   310.5374      -10561.309      80.240078     -10481.069      30632.402      1003.2104      48.18838       90845.807      30.640819      26.529072      42.860865     -15.316538    
     91000   295.18556     -10561.14       76.273302     -10484.867      28328.675     -3462.63       -1052.4706      89501.124      30.68487       26.538881      42.813766     -15.322201    
     92000   300.67962     -10557.641      77.692917     -10479.948      29527.473     -2105.4747     -1682.8641      92370.759      30.691217      26.555148      42.766666     -15.331593    
     93000   293.14034     -10557.116      75.744835     -10481.371      31467.114     -1983.8811      887.74446      95497.478      30.725765      26.540103      42.719566     -15.322907    
     94000   298.50203     -10552.745      77.130247     -10475.615      38482.574      3731.1123      7984.5176      103732.09      30.732378      26.50898       42.672466     -15.304938    
     95000   297.30415     -10552.382      76.820725     -10475.561      33876.121     -317.14563      1492.7608      100452.75      30.736143      26.57598       42.625366     -15.343621    
     96000   304.94246     -10550.059      78.794396     -10471.265      31924.133     -2495.4551     -1785.922       100053.78      30.758226      26.601936      42.578266     -15.358606    
     97000   298.37758     -10547.892      77.098089     -10470.794      33589.471     -1189.2301     -1041.8315      102999.47      30.763181      26.621831      42.531166     -15.370093    
     98000   292.5916      -10547.64       75.603046     -10472.037      32184.242     -3922.1747     -2449.0898      102923.99      30.793299      26.639206      42.484067     -15.380124    
     99000   303.81909     -10543.921      78.504129     -10465.417      35607.271     -1007.3631      178.10692      107651.07      30.794437      26.640668      42.436967     -15.380968    
    100000   298.23423     -10543.385      77.061051     -10466.324      33087.688     -3773.4213     -3126.1695      106162.65      30.814911      26.677392      42.389867     -15.402171    
Loop time of 800.937 on 1 procs for 100000 steps with 2000 atoms

Performance: 10.787 ns/day, 2.225 hours/ns, 124.854 timesteps/s, 249.707 katom-step/s
99.0% CPU use with 1 MPI tasks x 1 OpenMP threads

MPI task timing breakdown:
Section |  min time  |  avg time  |  max time  |%varavg| %total
---------------------------------------------------------------
Pair    | 778.69     | 778.69     | 778.69     |   0.0 | 97.22
Neigh   | 0.14627    | 0.14627    | 0.14627    |   0.0 |  0.02
Comm    | 3.8898     | 3.8898     | 3.8898     |   0.0 |  0.49
Output  | 0.29129    | 0.29129    | 0.29129    |   0.0 |  0.04
Modify  | 16.301     | 16.301     | 16.301     |   0.0 |  2.04
Other   |            | 1.622      |            |       |  0.20

Nlocal:           2000 ave        2000 max        2000 min
Histogram: 1 0 0 0 0 0 0 0 0 0
Nghost:           6250 ave        6250 max        6250 min
Histogram: 1 0 0 0 0 0 0 0 0 0
Neighs:         149214 ave      149214 max      149214 min
Histogram: 1 0 0 0 0 0 0 0 0 0

Total # of neighbors = 149214
Ave neighs/atom = 74.607
Neighbor list builds = 8
Dangerous builds = 0

unfix DEF
unfix OUT
unfix BARO
undump TRAJ
Total wall time: 0:13:21
