ITEM: TIMESTEP
50000
ITEM: NUMBER OF ATOMS
2000
ITEM: BOX BOUNDS xy xz yz pp pp pp
-1.4715318139560855e+01 2.9482672822860756e+01 -1.4732645316700102e+01
1.5005686570506526e-02 2.5532743725070429e+01 1.3198699862048053e-15
-1.2152900938957241e-01 4.6921529009389573e+01 7.4683542555208525e-16
ITEM: ATOMS id type x y z
22 1 -1.46554 4.25587 2.29122
2 1 0.0209943 1.70278 2.27101
241 1 -0.207047 5.15429 46.7949
202 1 2.92964 1.7457 2.18759
221 1 1.53142 2.63142 -0.057068
222 1 1.34979 4.28217 2.26886
421 1 4.43391 2.51151 -0.0883098
422 1 4.35857 4.35074 2.15094
441 1 2.8692 5.12602 46.9056
402 1 5.93151 1.67278 2.28032
602 1 8.75817 1.7729 2.24152
621 1 7.26505 2.49976 0.04836
622 1 7.34087 4.3758 2.24692
641 1 5.88532 5.08118 46.7963
841 1 8.72886 5.14967 -0.0910019
802 1 11.8284 1.83944 2.27765
821 1 10.2426 2.60001 46.8587
822 1 10.3037 4.35147 2.17744
1021 1 13.3289 2.53395 0.0283847
1022 1 13.3989 4.34135 2.27894
1002 1 14.8952 1.69506 2.23471
1041 1 11.8105 5.15852 -0.0105723
1241 1 14.8075 5.1882 46.9034
1202 1 17.6795 1.70611 2.28584
1221 1 16.2603 2.5676 -0.117153
1222 1 16.3482 4.31098 2.29995
1421 1 19.2677 2.47583 -0.084132
1422 1 19.0889 4.17303 2.24547
1441 1 17.7509 4.93283 46.8245
1402 1 20.7113 1.74853 2.19187
1602 1 23.4951 1.692 2.28317
1621 1 22.1802 2.53816 46.8942
1622 1 22.1211 4.29836 2.31341
1641 1 20.7226 5.16643 -0.0959056
1841 1 23.6182 5.16086 -0.0996786
21 1 -1.38574 2.62795 -0.0874886
1802 1 26.5631 1.83006 2.22905
1821 1 25.0246 2.5294 46.9169
1822 1 25.0161 4.17244 2.18782
41 1 26.5817 5.02069 46.9098
42 1 -2.93969 6.77918 2.15293
62 1 -4.32615 9.22058 2.22225
261 1 -1.38558 7.56208 46.8949
262 1 -1.55239 9.38899 2.22022
242 1 -5.9926e-05 6.93537 2.19057
281 1 -2.89985 10.2871 -0.0717427
481 1 0.0103498 10.2392 46.8526
442 1 2.84597 6.89416 2.25514
461 1 1.67061 7.80205 46.8932
462 1 1.6049 9.38804 2.20342
661 1 4.56168 7.53384 46.7763
662 1 4.52629 9.25437 2.14319
681 1 3.06825 10.2451 -0.115617
642 1 5.8523 6.79056 2.22393
842 1 8.90612 6.88443 2.3168
861 1 7.42661 7.75424 -0.0272727
862 1 7.40569 9.33825 2.35847
881 1 5.98575 10.3097 46.9166
1081 1 8.98369 10.1641 46.9041
1042 1 11.8827 6.96346 2.3439
1061 1 10.3429 7.57206 46.8756
1062 1 10.2917 9.5409 2.2775
1261 1 13.3532 7.60868 46.8592
1262 1 13.3834 9.30671 2.27069
1242 1 14.7646 6.8376 2.12372
1281 1 11.8261 10.1006 46.7237
1442 1 17.7547 6.68692 2.25545
1461 1 16.4651 7.66118 -0.0160142
1462 1 16.0879 9.37029 2.16722
1661 1 19.2365 7.51032 0.00313957
1662 1 19.2481 9.33415 2.30212
1481 1 14.8386 10.2613 46.7818
1681 1 17.8483 10.2125 46.9202
1642 1 20.6738 6.60613 2.28918
1842 1 23.632 6.87483 2.14781
1861 1 22.1046 7.65379 46.8692
1862 1 22.1827 9.43164 2.24393
81 1 -5.87706 10.2253 46.8767
1881 1 20.6943 10.3796 -0.0802759
61 1 -4.31439 7.70171 46.9186
82 1 -5.75818 11.7601 2.1685
102 1 -7.24805 14.379 2.18609
321 1 -5.78927 15.4983 -0.119264
282 1 -2.84254 11.946 2.24441
301 1 -4.31696 12.8051 -0.00322018
302 1 -4.54128 14.4639 2.41368
501 1 -1.48807 12.7497 -0.0531272
502 1 -1.44293 14.489 2.18117
482 1 0.0558086 11.8742 2.33792
521 1 -3.03382 15.3567 -0.00113719
721 1 -0.162517 15.427 -0.0583273
682 1 2.96152 11.8734 2.09381
701 1 1.34136 12.6534 -0.115476
702 1 1.5141 14.46 2.23923
901 1 4.44197 12.7829 0.00757598
902 1 4.38631 14.4966 2.22203
921 1 2.80979 15.3276 -0.0817618
882 1 5.93238 11.8697 2.32608
1082 1 8.8628 11.9531 2.30529
1101 1 7.42635 12.7293 -0.0147007
1102 1 7.43791 14.4637 2.41176
1121 1 6.14466 15.1897 0.0315263
1321 1 8.82665 15.4411 -0.065977
1282 1 11.6573 11.8137 2.30992
1301 1 10.3358 12.6423 -0.0552153
1302 1 10.2965 14.572 2.33971
1501 1 13.4234 12.7911 -0.0777054
1502 1 13.2445 14.457 2.41449
1521 1 11.905 15.2034 0.0349596
1482 1 14.871 11.896 2.23472
1682 1 17.6544 11.8081 2.17844
1701 1 16.3658 12.5603 46.854
1702 1 16.2275 14.4857 2.16409
1901 1 19.1563 12.795 46.8726
1902 1 19.2502 14.2771 2.2591
1721 1 14.7779 15.3865 -0.0362271
1921 1 17.9149 15.4389 -0.0534803
101 1 -7.24549 12.8067 46.8901
1882 1 20.6257 11.9498 2.30118
121 1 -8.84359 15.4318 46.8813
142 1 -10.3383 19.6381 2.26157
122 1 -8.86485 16.9589 2.18229
322 1 -5.8223 16.9945 2.39572
341 1 -7.22008 17.9761 -0.0275965
342 1 -7.30697 19.6183 2.18424
361 1 -8.72902 20.5727 -0.0922382
561 1 -5.73195 20.5413 46.8907
522 1 -3.09045 17.031 2.31426
541 1 -4.30683 17.9536 46.8635
542 1 -4.48718 19.5379 2.35047
741 1 -1.55234 17.9042 -0.0574751
742 1 -1.53708 19.6696 2.28876
761 1 -2.9422 20.4831 0.0121765
722 1 -0.00134176 17.1729 2.35886
922 1 2.96547 16.9993 2.22473
941 1 1.41885 17.7865 -0.101675
942 1 1.52007 19.5546 2.24739
1141 1 4.57759 17.6174 -0.103528
1142 1 4.22898 19.4881 2.21652
961 1 -0.0961108 20.3807 46.9108
1161 1 2.7766 20.4345 -0.0869197
1122 1 5.82029 16.9437 2.23507
1322 1 8.95105 17.0197 2.18768
1341 1 7.26934 17.8006 -0.00839801
1342 1 7.29731 19.5358 2.15849
1361 1 5.77048 20.3639 46.8592
1561 1 8.90005 20.3293 46.8906
1522 1 11.8361 17.0953 2.29553
1541 1 10.276 17.8272 46.9103
1542 1 10.2252 19.6374 2.32931
1741 1 13.1402 17.7159 -0.0893896
1742 1 13.2671 19.5857 2.27342
1761 1 11.8156 20.4489 46.8332
141 1 -10.3606 18.0397 -0.0600631
1722 1 14.8589 16.9815 2.39143
1922 1 17.7659 16.9711 2.31962
1941 1 16.2208 17.8331 0.00557284
1942 1 16.2629 19.6976 2.30372
161 1 -11.7099 20.5264 -0.0337456
1961 1 14.7011 20.4467 -0.113234
201 1 2.88833 0.0284189 -0.116553
162 1 -11.7943 22.1843 2.09289
182 1 -13.1273 24.7337 2.26574
381 1 -10.3244 23.0844 46.8765
382 1 -10.3177 24.6714 2.07154
401 1 -8.64144 25.5285 46.8517
601 1 8.94241 0.106354 46.8824
362 1 -8.71585 22.0399 2.23998
562 1 -5.87504 22.2129 2.19071
581 1 -7.38753 23.0222 46.9
582 1 -7.30532 24.608 2.2785
801 1 11.7731 0.151558 -0.0533436
762 1 -2.95455 22.0992 2.33169
781 1 -4.34957 22.9845 -0.0454022
782 1 -4.32112 24.7416 2.16812
981 1 -1.53605 23.0371 -0.0350913
982 1 -1.51792 24.7605 2.1796
1001 1 14.6273 0.043311 46.7752
1201 1 17.6319 0.139658 46.8463
962 1 -0.00191107 22.1212 2.22265
1162 1 2.83982 22.2679 2.22742
1181 1 1.48559 22.9804 -0.0853101
1182 1 1.40145 24.6683 2.25171
1381 1 4.28901 22.9896 46.7929
1382 1 4.35717 24.6668 2.20278
1401 1 5.89318 25.4413 46.8401
1601 1 8.79824 25.4945 46.8314
1362 1 5.73259 22.1433 2.06809
1562 1 8.70406 22.2097 2.10883
1581 1 7.37108 22.9379 46.7809
1582 1 7.34459 24.7346 2.19194
1801 1 26.5621 0.119456 -0.0853999
1762 1 11.8636 22.2323 2.12373
1781 1 10.3117 22.9814 0.00554524
1782 1 10.4581 24.7105 2.29243
1981 1 13.1847 23.0732 -0.0702698
1982 1 13.4247 24.8136 2.28878
1 1 0.0420839 0.0151831 46.874
181 1 16.1905 22.9709 46.8503
1962 1 14.6604 22.1706 2.23447
24 1 -1.43174 4.23384 6.8873
4 1 0.0434115 1.6397 7.01232
243 1 0.0436663 5.17924 4.61504
204 1 3.00618 1.71213 6.94254
223 1 1.45971 2.50185 4.5371
224 1 1.45618 4.26203 6.71922
423 1 4.46262 2.58497 4.56318
424 1 4.46797 4.16268 6.87578
443 1 2.95446 5.05298 4.5122
404 1 5.89034 1.72771 6.92486
604 1 8.96153 1.69628 6.8096
623 1 7.20956 2.48846 4.51373
624 1 7.30623 4.27892 6.71623
643 1 5.71656 5.08294 4.49802
843 1 8.76919 5.03052 4.64186
804 1 11.9194 1.75738 6.91224
823 1 10.3072 2.63769 4.66039
824 1 10.2896 4.24216 6.9072
1023 1 13.3103 2.61126 4.48138
1024 1 13.1575 4.32896 6.93706
1004 1 14.7611 1.71208 6.83977
1043 1 11.7952 5.07367 4.40992
1243 1 14.7259 5.14076 4.63393
1204 1 17.656 1.54434 6.91665
1223 1 16.3338 2.5937 4.59317
1224 1 16.1765 4.14071 6.90034
1423 1 19.1847 2.52951 4.6595
1424 1 19.1494 4.30009 6.95139
1443 1 17.5954 5.08527 4.58369
1404 1 20.7724 1.59675 7.02792
1604 1 23.5116 1.71781 7.09557
1623 1 22.0166 2.54172 4.64634
1624 1 22.218 4.27184 7.06707
1643 1 20.6712 5.02459 4.72123
1843 1 23.6616 5.1938 4.561
23 1 27.9513 2.66285 4.64764
1804 1 26.4668 1.69366 6.85668
1823 1 24.872 2.58461 4.66697
1824 1 25.044 4.32207 6.88381
43 1 26.5315 5.05155 4.48826
44 1 -2.88208 6.89863 6.78561
64 1 -4.28432 9.47886 6.82859
263 1 -1.36988 7.65252 4.42576
264 1 -1.34793 9.34511 7.02996
244 1 -0.101673 6.83077 7.03908
283 1 -2.79594 10.3762 4.69517
483 1 0.0141812 10.1122 4.64637
444 1 2.92147 6.81653 6.95892
463 1 1.58781 7.63557 4.67435
464 1 1.4675 9.27161 6.8658
663 1 4.5213 7.64452 4.62236
664 1 4.45255 9.55491 6.74504
683 1 2.97239 10.2097 4.30741
644 1 5.8204 6.85783 6.91248
844 1 8.75028 6.79174 6.97838
863 1 7.39987 7.51479 4.40775
864 1 7.23729 9.35186 6.75391
883 1 5.93491 10.1687 4.55695
1083 1 8.86148 10.1157 4.66239
1044 1 11.7725 6.82141 6.88161
1063 1 10.253 7.57183 4.66369
1064 1 10.3421 9.42203 6.95172
1263 1 13.4544 7.58825 4.68798
1264 1 13.2888 9.18629 7.00795
1244 1 14.9034 6.80861 7.03677
1283 1 11.8119 10.2032 4.61884
1444 1 17.8372 6.87672 6.91615
1463 1 16.3608 7.71953 4.48849
1464 1 16.166 9.39164 6.9475
1663 1 19.314 7.66049 4.53277
1664 1 19.1525 9.40023 6.79326
1483 1 14.809 10.1645 4.67007
1683 1 17.6218 10.3014 4.5283
1644 1 20.7939 6.92631 6.85419
1844 1 23.6607 6.85627 6.9427
1863 1 22.1665 7.63887 4.42189
1864 1 22.1107 9.3827 6.83341
83 1 -5.7417 10.2768 4.68756
1883 1 20.6685 10.3029 4.52037
63 1 -4.1912 7.75934 4.51219
84 1 -5.84041 11.9323 6.92628
104 1 -7.32529 14.4642 6.9073
323 1 -5.91397 15.3193 4.66699
284 1 -2.85691 11.9949 7.02663
303 1 -4.21844 12.6675 4.60113
304 1 -4.27112 14.4613 6.74069
503 1 -1.37728 12.7537 4.57263
504 1 -1.39773 14.571 6.95642
484 1 -0.0426473 11.8291 6.94941
523 1 -2.88275 15.3342 4.58461
723 1 0.0762556 15.2642 4.60672
684 1 2.86999 11.9378 6.84855
703 1 1.486 12.6776 4.47344
704 1 1.59484 14.343 6.96547
903 1 4.40408 12.7663 4.57513
904 1 4.46419 14.4086 6.88319
923 1 3.01821 15.405 4.54741
884 1 5.83691 11.9742 7.04027
1084 1 8.75206 11.918 6.99816
1103 1 7.34159 12.7799 4.67498
1104 1 7.43625 14.604 6.9001
1123 1 5.98326 15.2959 4.66356
1323 1 8.99392 15.3469 4.64646
1284 1 11.8579 11.8752 7.00021
1303 1 10.3481 12.7738 4.66776
1304 1 10.2507 14.4238 7.05262
1503 1 13.3062 12.672 4.53547
1504 1 13.253 14.3826 6.91341
1523 1 11.8592 15.2911 4.56195
1484 1 14.7995 11.931 7.02454
1684 1 17.6121 11.7806 6.98134
1703 1 16.2344 12.8647 4.54523
1704 1 16.1682 14.2795 6.86464
1903 1 19.2613 12.7305 4.69797
1904 1 19.0979 14.4023 6.91713
1723 1 14.7696 15.4489 4.66606
1923 1 17.7276 15.3502 4.54867
103 1 -7.25655 12.7975 4.54146
1884 1 20.6378 11.8702 6.82786
123 1 -8.7861 15.3434 4.56425
144 1 -10.3174 19.6278 6.8199
124 1 -9.05586 16.9681 6.94677
324 1 -6.07263 17.0023 6.86806
343 1 -7.58617 17.9835 4.53135
344 1 -7.39746 19.5501 7.05515
363 1 -8.61789 20.492 4.59461
563 1 -5.89743 20.427 4.61836
524 1 -2.9545 16.8651 6.88079
543 1 -4.51856 17.9498 4.63911
544 1 -4.40482 19.4529 6.91657
743 1 -1.49201 17.8378 4.75336
744 1 -1.36525 19.4946 7.01683
763 1 -2.75158 20.3252 4.72414
724 1 0.181924 17.0214 6.96749
924 1 3.07984 17.0762 6.97338
943 1 1.49921 17.8102 4.53284
944 1 1.52647 19.5704 6.91007
1143 1 4.36606 17.9481 4.55776
1144 1 4.45316 19.5385 6.83992
963 1 0.0200042 20.3446 4.64914
1163 1 2.90435 20.5097 4.62066
1124 1 5.98672 17.0317 6.83659
1324 1 8.83897 17.0755 6.83842
1343 1 7.27149 17.7663 4.44506
1344 1 7.24817 19.4244 6.96402
1363 1 5.77961 20.4988 4.57083
1563 1 8.78276 20.3496 4.56005
1524 1 11.7367 16.9735 7.00203
1543 1 10.4264 17.9032 4.41003
1544 1 10.3643 19.5499 6.9249
1743 1 13.2219 17.8321 4.56297
1744 1 13.1476 19.6158 6.93744
1763 1 11.927 20.5329 4.57995
143 1 18.9965 17.955 4.4936
1724 1 14.6742 16.9908 7.13746
1924 1 17.6135 17.0074 6.97208
1943 1 16.2459 17.9635 4.63393
1944 1 16.118 19.6142 6.87695
163 1 -11.8403 20.7317 4.51676
1963 1 14.7884 20.4347 4.51441
203 1 -11.7053 25.5288 4.63932
164 1 -11.6895 22.2047 6.89496
184 1 -13.2042 24.585 6.94923
383 1 -10.3291 23.1461 4.49154
384 1 -10.1697 24.6011 6.98181
403 1 -8.75007 25.4971 4.64239
603 1 -5.81662 25.3963 4.62887
364 1 -8.70297 22.1701 6.8349
564 1 -5.70628 22.1428 6.94211
583 1 -7.23391 23.0521 4.63786
584 1 -7.3352 24.6148 6.98089
803 1 11.8788 0.140255 4.35364
764 1 -2.84325 22.0357 6.78637
783 1 -4.38928 23.0004 4.53562
784 1 -4.37083 24.8325 6.91294
983 1 -1.45072 23.0868 4.505
984 1 -1.5734 24.7873 6.89002
1003 1 14.757 0.0415277 4.51569
1203 1 3.06543 25.4814 4.6935
964 1 0.0831957 22.207 7.0019
1164 1 2.99346 22.1712 6.91959
1183 1 1.37417 22.9359 4.5098
1184 1 1.45883 24.6629 6.83389
1383 1 4.37281 22.9181 4.55545
1384 1 4.57758 24.6822 6.98806
1403 1 5.7911 25.5235 4.58633
1603 1 23.6445 0.0402586 4.53165
1364 1 5.94119 22.0587 7.01884
1564 1 8.80662 21.9965 6.76555
1583 1 7.31855 22.949 4.52684
1584 1 7.36897 24.6954 6.79978
1803 1 26.5909 0.0345529 4.4495
1764 1 11.8134 22.1572 6.87133
1783 1 10.3299 22.9613 4.55717
1784 1 10.3099 24.7807 6.87707
1983 1 13.2446 22.9302 4.61973
1984 1 13.0847 24.7536 6.82688
3 1 0.00221466 0.104026 4.64252
183 1 16.0107 23.089 4.57845
1964 1 14.7072 22.1595 6.95365
26 1 -1.55192 4.2988 11.6901
6 1 -0.000957957 1.77763 11.4809
245 1 -0.0837058 5.05331 9.2478
206 1 3.00749 1.6783 11.5619
225 1 1.46424 2.62594 9.16417
226 1 1.43106 4.34184 11.5172
425 1 4.29996 2.50223 9.18098
426 1 4.50183 4.3493 11.4908
445 1 2.88273 5.16122 9.14321
406 1 6.00369 1.86581 11.662
606 1 8.9686 1.93395 11.6523
625 1 7.40654 2.54404 9.23154
626 1 7.38825 4.39165 11.6358
645 1 5.81026 5.10956 9.07434
845 1 8.85085 5.10583 9.22507
806 1 11.9015 1.68681 11.5507
825 1 10.3294 2.46151 9.19912
826 1 10.4423 4.37951 11.5313
1025 1 13.353 2.64959 9.29421
1026 1 13.2766 4.16898 11.6254
1006 1 14.7307 1.66823 11.6942
1045 1 11.8114 5.13252 9.22183
1245 1 14.728 5.20338 9.30253
1206 1 17.7704 1.63392 11.6989
1225 1 16.2435 2.53146 9.3028
1226 1 16.2504 4.07628 11.7308
1425 1 19.1853 2.52184 9.2663
1426 1 19.2396 4.3239 11.6499
1445 1 17.7174 5.07064 9.30759
1406 1 20.6412 1.56513 11.6929
1606 1 23.535 1.71838 11.7478
1625 1 22.147 2.57611 9.44006
1626 1 22.0454 4.43414 11.4482
1645 1 20.6474 5.15863 9.22754
1845 1 23.5669 5.15885 9.45195
25 1 27.9696 2.38145 9.30682
1806 1 26.5528 1.67471 11.705
1825 1 25.0015 2.47916 9.29665
1826 1 24.9794 4.2813 11.6211
45 1 -2.92009 5.1966 9.22453
46 1 -2.95987 6.80826 11.696
66 1 -4.31249 9.38068 11.6506
265 1 -1.5173 7.64333 9.26101
266 1 -1.43425 9.29539 11.5756
246 1 0.0672153 6.77352 11.5205
285 1 -2.92235 10.1674 9.31204
485 1 0.0948579 10.1675 9.3267
446 1 3.08748 6.87099 11.5921
465 1 1.45391 7.58844 9.40312
466 1 1.55322 9.34294 11.6746
665 1 4.35737 7.7948 9.18041
666 1 4.42326 9.3839 11.5756
685 1 2.89856 10.0997 9.1845
646 1 5.96122 6.8682 11.4928
846 1 8.91341 6.72332 11.5449
865 1 7.29487 7.69898 9.24468
866 1 7.46051 9.35596 11.6831
885 1 5.88293 10.2234 9.2967
1085 1 8.83274 10.0913 9.23012
1046 1 11.9679 6.92396 11.5921
1065 1 10.4444 7.62682 9.22838
1066 1 10.3323 9.4362 11.4856
1265 1 13.3975 7.64766 9.26709
1266 1 13.2328 9.3517 11.6005
1246 1 14.7044 6.78553 11.64
1285 1 11.8738 10.1703 9.22759
1446 1 17.6801 6.86279 11.5763
1465 1 16.3042 7.63302 9.36387
1466 1 16.235 9.29246 11.6829
1665 1 19.2152 7.65571 9.28
1666 1 19.1398 9.42967 11.6498
1485 1 14.8848 10.3511 9.4454
1685 1 17.7462 10.1319 9.24754
1646 1 20.7307 6.79563 11.6916
1846 1 23.4973 6.95315 11.6896
1865 1 22.1351 7.64816 9.28488
1866 1 22.1689 9.41088 11.5066
85 1 -5.81036 10.1964 9.14585
1885 1 20.7194 10.3128 9.12428
65 1 25.0378 7.63305 9.17243
86 1 -5.74281 11.8171 11.585
106 1 -7.21379 14.4035 11.6651
325 1 -5.8011 15.2785 9.27457
286 1 -2.90794 11.9156 11.5007
305 1 -4.36373 12.8035 9.20357
306 1 -4.30537 14.5539 11.6197
505 1 -1.39322 12.7914 9.26551
506 1 -1.35041 14.4957 11.7368
486 1 -0.0836151 11.895 11.5478
525 1 -2.83231 15.2259 9.2709
725 1 0.115266 15.2182 9.31476
686 1 3.01627 11.9166 11.6048
705 1 1.48497 12.6532 9.32965
706 1 1.49609 14.3678 11.6745
905 1 4.40054 12.7607 9.17851
906 1 4.50617 14.429 11.6355
925 1 3.06749 15.3642 9.18262
886 1 5.88399 11.8951 11.5722
1086 1 8.91519 11.9082 11.4577
1105 1 7.4739 12.7873 9.26169
1106 1 7.38568 14.4413 11.5819
1125 1 5.91263 15.3472 9.19406
1325 1 8.85122 15.3998 9.25099
1286 1 11.9593 12.048 11.6305
1305 1 10.3752 12.7139 9.36645
1306 1 10.3526 14.5547 11.6571
1505 1 13.2028 12.8116 9.3084
1506 1 13.2782 14.5136 11.7442
1525 1 11.794 15.2618 9.32428
1486 1 14.8296 12.0388 11.6986
1686 1 17.6879 11.8029 11.6684
1705 1 16.2818 12.7626 9.37816
1706 1 16.2602 14.6341 11.5259
1905 1 19.1976 12.7582 9.24691
1906 1 19.2481 14.3883 11.4297
1725 1 14.7307 15.3217 9.26712
1925 1 17.5696 15.2193 9.28926
105 1 22.0755 12.6466 9.17577
1886 1 20.7047 11.9246 11.4842
125 1 -8.73924 15.3222 9.19559
146 1 -10.3314 19.5733 11.7136
126 1 -8.85345 16.9963 11.4812
326 1 -5.82915 16.8842 11.7694
345 1 -7.38163 17.8183 9.33122
346 1 -7.19326 19.5936 11.6416
365 1 -8.84877 20.3799 9.21043
565 1 -5.90186 20.2661 9.20482
526 1 -2.88551 17.1644 11.5683
545 1 -4.54881 17.8346 9.18182
546 1 -4.31013 19.5122 11.5985
745 1 -1.44597 17.6515 9.20518
746 1 -1.33101 19.5811 11.6066
765 1 -2.87594 20.3854 9.15758
726 1 0.058031 16.9405 11.5231
926 1 3.03014 16.8912 11.653
945 1 1.54554 17.8471 9.29351
946 1 1.53525 19.4231 11.6513
1145 1 4.56555 17.9379 9.24325
1146 1 4.55887 19.4848 11.7414
965 1 -0.00133999 20.327 9.36671
1165 1 2.96678 20.4842 9.22502
1126 1 5.78371 16.9508 11.6152
1326 1 8.88685 17.0086 11.7335
1345 1 7.4949 17.8275 9.17207
1346 1 7.52783 19.5362 11.7172
1365 1 5.94756 20.3565 9.31097
1565 1 8.91767 20.4438 9.23504
1526 1 11.8244 17.0572 11.7268
1545 1 10.3224 17.7992 9.2652
1546 1 10.4676 19.6369 11.5069
1745 1 13.1988 17.9315 9.22487
1746 1 13.4897 19.5373 11.6798
1765 1 11.8191 20.4221 9.31725
145 1 19.0421 17.8775 9.32891
1726 1 14.8078 16.9746 11.4879
1926 1 17.6745 17.0886 11.5909
1945 1 16.1611 18.0565 9.2503
1946 1 16.4336 19.5541 11.8122
165 1 -11.8097 20.518 9.28671
1965 1 14.7326 20.4861 9.4224
205 1 -11.907 25.4775 9.36504
166 1 -11.7827 22.1377 11.6574
186 1 -13.1676 24.7783 11.5755
385 1 -10.2604 23.0584 9.31774
386 1 -10.1857 24.6924 11.5958
405 1 5.90344 0.102918 9.35462
605 1 -5.81171 25.3894 9.16906
366 1 -8.66936 22.3099 11.6848
566 1 -5.7347 22.0548 11.5424
585 1 -7.32875 22.8487 9.32352
586 1 -7.16303 24.7527 11.6181
805 1 -2.90816 25.4829 9.39301
766 1 -2.88346 22.0448 11.5756
785 1 -4.41069 22.9359 9.17159
786 1 -4.23374 24.691 11.6719
985 1 -1.54279 22.9242 9.27015
986 1 -1.42119 24.6339 11.7235
1005 1 -0.00787538 25.468 9.30147
1205 1 3.05503 25.4978 9.28357
966 1 0.000420209 22.1734 11.5799
1166 1 2.92886 21.9985 11.694
1185 1 1.59364 22.7935 9.29227
1186 1 1.52146 24.6019 11.6097
1385 1 4.41008 22.862 9.2512
1386 1 4.34469 24.5708 11.7437
1405 1 5.81053 25.5175 9.32689
1605 1 23.4101 0.0552825 9.39519
1366 1 5.83413 22.1117 11.5696
1566 1 8.85999 22.0614 11.6871
1585 1 7.43106 22.8869 9.35844
1586 1 7.3862 24.6257 11.7496
1805 1 11.6898 25.413 9.28023
1766 1 12.0046 22.2458 11.5452
1785 1 10.3433 22.8891 9.30428
1786 1 10.2247 24.6578 11.7083
1985 1 13.1402 23.0015 9.25908
1986 1 13.2524 24.7068 11.6785
5 1 14.7037 25.4643 9.33071
185 1 16.1249 22.975 9.19727
1966 1 14.7677 22.1848 11.6506
28 1 -1.35786 4.22523 16.4504
8 1 -0.060795 1.64843 16.3678
247 1 0.0802422 5.11398 14.031
208 1 2.87232 1.71744 16.3333
227 1 1.53174 2.7587 14.0628
228 1 1.64883 4.37613 16.3626
427 1 4.43422 2.37491 13.9154
428 1 4.43737 4.27176 16.2759
447 1 3.03596 4.99741 14.0359
408 1 5.84464 1.78297 16.3789
608 1 8.97766 1.79877 16.2011
627 1 7.37103 2.68582 14.0364
628 1 7.34725 4.31874 16.339
647 1 5.79936 5.01169 13.9126
847 1 8.76044 5.17711 13.9783
808 1 11.9997 1.76122 16.3892
827 1 10.3126 2.63195 13.9537
828 1 10.2354 4.22613 16.2638
1027 1 13.2037 2.50052 13.9607
1028 1 13.2171 4.25715 16.5272
1008 1 14.7486 1.7486 16.4552
1047 1 11.737 5.08756 13.9792
1247 1 14.6504 5.02913 14.0384
1208 1 17.6664 1.79449 16.4281
1227 1 16.1955 2.51959 14.088
1228 1 16.1145 4.26313 16.3756
1427 1 19.18 2.52116 14.0283
1428 1 19.1458 4.35343 16.5163
1447 1 17.6609 5.10318 14.0093
1408 1 20.6524 1.72428 16.3562
1608 1 23.4512 1.68877 16.3895
1627 1 22.0889 2.62822 14.0106
1628 1 22.0635 4.26307 16.4645
1647 1 20.6637 5.11715 14.0907
1847 1 23.6836 5.16481 14.016
27 1 27.992 2.59612 14.0719
1808 1 26.411 1.64418 16.4355
1827 1 25.0359 2.54182 13.9105
1828 1 25.0188 4.21209 16.4007
47 1 -2.88148 5.06423 14.0471
48 1 -3.09814 6.69677 16.376
68 1 -4.44978 9.46975 16.3341
267 1 -1.31578 7.67284 13.9347
268 1 -1.47157 9.26021 16.3207
248 1 -0.169738 6.76055 16.3034
287 1 -2.86933 10.2228 13.8995
487 1 0.0838014 10.2482 14.0158
448 1 2.8359 6.78602 16.3414
467 1 1.63499 7.60567 13.9922
468 1 1.38687 9.45052 16.4108
667 1 4.50968 7.70714 14.1443
668 1 4.42325 9.34878 16.4361
687 1 3.05948 10.2452 14.1086
648 1 5.83988 6.79448 16.4955
848 1 8.81451 6.777 16.3546
867 1 7.25112 7.64595 14.0209
868 1 7.34397 9.34308 16.2979
887 1 5.79013 10.2893 13.8807
1087 1 8.77166 10.0611 13.9528
1048 1 11.7539 6.86213 16.2797
1067 1 10.2898 7.53226 13.8142
1068 1 10.2969 9.40604 16.3236
1267 1 13.2243 7.81862 14.0279
1268 1 13.2899 9.46428 16.3662
1248 1 14.6636 6.81191 16.3896
1287 1 11.6462 10.1213 13.9077
1448 1 17.5622 6.8772 16.3439
1467 1 16.0795 7.59434 13.99
1468 1 16.2113 9.36652 16.323
1667 1 19.1262 7.7267 13.9699
1668 1 19.1412 9.60322 16.3401
1487 1 14.6877 10.1448 13.9507
1687 1 17.5435 10.2987 14.0804
1648 1 20.5883 6.8003 16.3451
1848 1 23.589 6.82536 16.3396
1867 1 22.0633 7.87428 13.969
1868 1 22.1684 9.47572 16.3735
87 1 23.5541 10.1957 13.9892
1887 1 20.6843 10.1724 13.8482
67 1 -4.35531 7.72311 13.8812
88 1 -5.81076 12.0126 16.4013
108 1 -7.3676 14.4914 16.34
327 1 -5.90414 15.3488 13.9959
288 1 -2.86827 11.986 16.3581
307 1 -4.41294 12.7514 14.0052
308 1 -4.37764 14.5553 16.3061
507 1 -1.61532 12.8152 14.0029
508 1 -1.39931 14.4488 16.4676
488 1 0.15653 11.9116 16.3312
527 1 -2.86829 15.3368 13.9101
727 1 0.0842181 15.4531 14.1541
688 1 2.94736 12.0135 16.4183
707 1 1.50709 12.8559 13.9381
708 1 1.44859 14.4723 16.4382
907 1 4.42232 12.8249 13.9828
908 1 4.48356 14.4709 16.4519
927 1 3.00382 15.2598 14.0302
888 1 5.89143 12.0014 16.2668
1088 1 8.83129 11.7797 16.2117
1107 1 7.41725 12.6708 14.0361
1108 1 7.51734 14.5655 16.2615
1127 1 5.95268 15.1993 14.0393
1327 1 8.90533 15.4179 14.0562
1288 1 11.6928 11.964 16.2116
1307 1 10.2041 12.7244 13.8047
1308 1 10.3074 14.4342 16.3841
1507 1 13.3217 12.7731 14.1498
1508 1 13.2135 14.6044 16.2528
1527 1 11.7974 15.4373 14.0665
1488 1 14.7003 11.8548 16.3205
1688 1 17.7108 12.0378 16.4168
1707 1 16.2569 12.8109 13.979
1708 1 16.243 14.6702 16.3114
1907 1 19.2316 12.811 14.0963
1908 1 19.2018 14.5865 16.374
1727 1 14.7154 15.532 13.9314
1927 1 17.803 15.326 13.8128
107 1 -7.34272 12.7935 13.8102
1888 1 20.7663 12.0034 16.3426
127 1 20.6486 15.3101 13.9502
148 1 -10.2181 19.5428 16.4417
128 1 -8.80323 16.9733 16.2199
328 1 -5.91019 17.1857 16.2519
347 1 -7.32454 17.8537 13.897
348 1 -7.37821 19.5982 16.2688
367 1 -8.83035 20.433 13.9444
567 1 -5.86277 20.3122 14.0617
528 1 -2.96281 17.0336 16.3764
547 1 -4.30478 17.9159 13.9653
548 1 -4.37939 19.7746 16.3996
747 1 -1.42782 17.8252 13.9271
748 1 -1.39811 19.5833 16.3066
767 1 -2.77069 20.3293 14.0483
728 1 0.0281791 17.0324 16.3767
928 1 2.86439 17.0465 16.4259
947 1 1.54829 17.8225 13.8412
948 1 1.42479 19.4527 16.1485
1147 1 4.51992 17.7121 13.9658
1148 1 4.44889 19.4621 16.2357
967 1 0.047523 20.4293 13.9042
1167 1 2.88956 20.3275 14.0794
1128 1 5.89048 17.003 16.4072
1328 1 9.05419 17.021 16.3421
1347 1 7.26485 17.9014 14.1631
1348 1 7.44093 19.6044 16.3711
1367 1 6.02419 20.4298 14.0367
1567 1 9.00275 20.4438 14.0692
1528 1 11.815 17.0417 16.4447
1547 1 10.3546 18.0238 14.0868
1548 1 10.393 19.8095 16.3291
1747 1 13.2678 17.9161 13.8875
1748 1 13.2729 19.6576 16.1816
1767 1 11.8734 20.4413 13.7641
147 1 -10.2212 17.8376 13.9601
1728 1 14.6981 17.1303 16.3454
1928 1 17.8236 17.0837 16.3256
1947 1 16.3941 17.9106 14.0856
1948 1 16.2544 19.7237 16.4547
167 1 -11.6971 20.4857 14.036
1967 1 14.8927 20.4295 13.9721
207 1 2.90867 0.0236183 14.0158
168 1 -11.8387 22.0772 16.2515
188 1 -13.284 24.6967 16.3289
387 1 -10.2914 23.1039 13.8892
388 1 -10.3289 24.6942 16.4197
407 1 6.03312 0.0511986 13.8958
607 1 8.95076 0.079669 14.0142
368 1 -8.98578 22.1575 16.256
568 1 -5.89393 22.2639 16.2842
587 1 -7.36027 22.9979 13.9138
588 1 -7.31615 24.5764 16.2453
807 1 11.7863 0.085531 14.0373
768 1 -2.85645 22.156 16.4758
787 1 -4.35459 22.9969 13.9178
788 1 -4.36572 24.6976 16.2464
987 1 -1.59643 22.9779 14.0759
988 1 -1.39862 24.6679 16.2944
1007 1 0.0580926 25.4771 14.0404
1207 1 2.91175 25.4946 14.0685
968 1 -0.119668 22.1342 16.3227
1168 1 2.90318 22.0447 16.1855
1187 1 1.39882 22.9238 14.0201
1188 1 1.57091 24.6271 16.3367
1387 1 4.41157 22.9037 14.0079
1388 1 4.41859 24.6659 16.353
1407 1 5.83109 25.4963 13.978
1607 1 23.57 0.0477684 14.1322
1368 1 5.77337 22.0925 16.1823
1568 1 8.71097 22.1443 16.2154
1587 1 7.46577 22.9054 13.9626
1588 1 7.26996 24.65 16.404
1807 1 11.8223 25.5229 14.1043
1768 1 11.6119 22.1443 16.1885
1787 1 10.3361 22.9904 13.9112
1788 1 10.2107 24.6341 16.2329
1987 1 13.3357 22.9614 13.9974
1988 1 13.3109 24.698 16.4229
7 1 0.151164 0.166381 13.8216
187 1 16.1377 23.0909 14.0478
1968 1 14.611 22.1938 16.3506
30 1 -1.38835 4.2484 21.1104
10 1 0.0394885 1.66309 21.1631
249 1 -0.00216977 5.14221 18.6983
251 1 -0.0275777 5.17451 23.4391
210 1 2.97358 1.76145 21.0514
229 1 1.48884 2.49139 18.722
230 1 1.50812 4.19923 21.0856
429 1 4.25694 2.56142 18.7571
430 1 4.47741 4.23737 20.9545
449 1 3.03748 5.1744 18.7332
231 1 1.46543 2.57521 23.408
431 1 4.49819 2.66024 23.392
451 1 3.00422 5.18815 23.35
410 1 5.98447 1.71605 20.9977
610 1 8.86295 1.67311 20.9657
629 1 7.46543 2.68979 18.5336
630 1 7.51919 4.17042 21.1037
649 1 6.03726 5.01248 18.7164
849 1 8.99033 5.11793 18.6499
631 1 7.3199 2.50401 23.3912
651 1 5.80711 5.14075 23.437
851 1 8.90266 5.19651 23.4084
810 1 11.8002 1.77358 20.9491
829 1 10.3439 2.59138 18.6108
830 1 10.4187 4.28661 20.9535
1029 1 13.2876 2.53336 18.7556
1030 1 13.3315 4.24761 21.0742
1010 1 14.7093 1.66102 21.1115
1049 1 11.7765 5.14107 18.7239
1249 1 14.7801 5.17869 18.8282
831 1 10.2518 2.60942 23.3172
1031 1 13.2104 2.45344 23.3259
1051 1 11.7571 5.09336 23.3321
1251 1 14.6593 5.13911 23.476
1210 1 17.6395 1.76626 20.9443
1229 1 16.1208 2.72693 18.7151
1230 1 16.1496 4.23504 21.1752
1429 1 19.1638 2.45369 18.7446
1430 1 19.1046 4.31453 21.1865
1449 1 17.6997 5.21148 18.7704
1231 1 16.1646 2.43869 23.5765
1431 1 19.2171 2.53432 23.4403
1451 1 17.7624 5.12688 23.4928
1410 1 20.6154 1.59786 20.9662
1610 1 23.4634 1.61576 21.0635
1629 1 21.9483 2.6896 18.828
1630 1 22.0207 4.3975 20.9255
1649 1 20.5452 5.18044 18.7607
1849 1 23.4607 5.22175 18.7046
1631 1 22.1296 2.75026 23.2534
1651 1 20.6732 5.12216 23.3523
1851 1 23.618 5.16842 23.3587
29 1 27.9968 2.53456 18.9158
1810 1 26.4959 1.78379 21.0095
1829 1 24.7912 2.61489 18.6425
1830 1 25.0521 4.31559 21.1749
49 1 26.3589 5.01689 18.7599
31 1 27.944 2.50089 23.3695
1831 1 24.9767 2.43609 23.2519
51 1 -2.92363 5.1923 23.3726
50 1 -2.90651 6.78049 21.1323
70 1 -4.33093 9.43724 21.0882
269 1 -1.48117 7.62074 18.6254
270 1 -1.36607 9.39734 20.9721
250 1 -0.107153 6.86684 21.0651
289 1 -2.89627 10.2003 18.6394
489 1 0.0580148 10.1987 18.7496
271 1 -1.49425 7.72873 23.3925
291 1 -2.89411 10.2807 23.3348
491 1 0.15501 10.2534 23.3896
450 1 2.98917 6.87357 21.1281
469 1 1.4925 7.75578 18.7758
470 1 1.68374 9.45938 21.0769
669 1 4.54864 7.72903 18.8347
670 1 4.49887 9.44419 21.128
689 1 2.99475 10.2286 18.6732
471 1 1.33936 7.76393 23.3729
671 1 4.25936 7.61291 23.4088
691 1 3.00368 10.2824 23.5577
650 1 5.98853 6.68679 21.0346
850 1 8.85659 6.72041 21.0222
869 1 7.45981 7.72003 18.7324
870 1 7.42018 9.30185 21.1813
889 1 5.84499 10.3576 18.6746
1089 1 8.80575 10.1261 18.7138
871 1 7.34566 7.60672 23.3803
891 1 5.85281 10.3073 23.4907
1091 1 8.91356 10.1415 23.4071
1050 1 11.8862 6.88617 20.9907
1069 1 10.3431 7.80221 18.7516
1070 1 10.2818 9.40341 20.9989
1269 1 13.3046 7.70209 18.6602
1270 1 13.3486 9.54887 21.027
1250 1 14.8908 6.77595 21.0749
1289 1 11.7674 10.2461 18.6888
1071 1 10.3086 7.69829 23.3307
1271 1 13.3223 7.48694 23.2184
1291 1 11.8358 10.2347 23.3395
1450 1 17.7391 6.76221 21.1272
1469 1 16.2471 7.78782 18.6385
1470 1 16.2536 9.3354 21.0066
1669 1 19.0817 7.72404 18.6317
1670 1 19.0454 9.44255 21.0054
1489 1 14.7694 10.291 18.7647
1689 1 17.6942 10.223 18.6417
1471 1 16.1189 7.65563 23.4676
1671 1 19.112 7.79901 23.4113
1491 1 14.8269 10.23 23.4087
1691 1 17.7606 10.2601 23.547
1650 1 20.6574 6.98042 21.0965
1850 1 23.6487 7.01282 20.9571
1869 1 22.0817 7.76517 18.6422
1870 1 22.117 9.48444 21.0215
89 1 -5.85986 10.2711 18.7405
1889 1 20.6631 10.1979 18.6936
1871 1 22.0748 7.84668 23.3701
91 1 -5.82639 10.3172 23.3687
1891 1 20.6793 10.3558 23.5947
69 1 25.0529 7.66889 18.6128
71 1 -4.41737 7.83279 23.2956
90 1 -5.93421 12.157 21.041
110 1 -7.24482 14.4805 20.8753
329 1 -5.8004 15.4056 18.6721
331 1 -5.89785 15.3556 23.3294
290 1 -3.0179 11.8939 20.9887
309 1 -4.46535 12.8646 18.6482
310 1 -4.27423 14.5351 21.0685
509 1 -1.46325 12.8117 18.8012
510 1 -1.42112 14.4556 21.069
490 1 0.0239848 12.0108 21.1873
529 1 -2.86892 15.3001 18.7402
729 1 0.136369 15.3233 18.6217
311 1 -4.33951 12.7579 23.4328
511 1 -1.43419 12.7895 23.4697
531 1 -2.80782 15.3459 23.3906
731 1 0.0413517 15.3723 23.3403
690 1 3.16267 11.9922 21.0986
709 1 1.45167 12.7559 18.9092
710 1 1.46173 14.4657 21.0329
909 1 4.31875 12.7766 18.7936
910 1 4.55436 14.5661 20.9903
929 1 3.08567 15.3663 18.8519
711 1 1.52875 12.7415 23.3505
911 1 4.48657 12.8217 23.4299
931 1 3.04842 15.3271 23.3124
890 1 6.08015 11.9432 20.9485
1090 1 9.01739 11.9464 21.0849
1109 1 7.45314 12.8707 18.5125
1110 1 7.57232 14.4438 21.0176
1129 1 6.06254 15.3145 18.5644
1329 1 8.99428 15.3525 18.5713
1111 1 7.412 12.6127 23.3304
1131 1 6.06766 15.3166 23.301
1331 1 8.84973 15.3019 23.4467
1290 1 11.7365 12.129 20.8929
1309 1 10.343 12.7059 18.6098
1310 1 10.523 14.5878 20.9856
1509 1 13.2426 13.001 18.5917
1510 1 13.4838 14.4539 21.1144
1529 1 11.7902 15.4731 18.7431
1311 1 10.2063 12.695 23.4753
1511 1 13.2257 12.7197 23.4293
1531 1 11.7972 15.323 23.3028
1490 1 14.6941 11.9011 20.9302
1690 1 17.6832 12.0097 20.977
1709 1 16.256 12.8445 18.6726
1710 1 16.2499 14.4728 21.1395
1909 1 19.2724 12.7618 18.7305
1910 1 19.1879 14.5656 21.0603
1729 1 14.7229 15.2815 18.7823
1929 1 17.8158 15.4781 18.7232
1711 1 16.0923 12.7617 23.4326
1911 1 18.9746 12.7814 23.456
1731 1 14.7583 15.3951 23.3656
1931 1 17.8045 15.3594 23.4129
109 1 -7.29438 12.7196 18.5981
1890 1 20.6447 11.9275 21.2102
129 1 20.6468 15.2595 18.8117
111 1 -7.25861 12.9601 23.4099
131 1 -8.73702 15.4166 23.314
150 1 -10.235 19.5197 21.0927
130 1 -8.6907 17.0252 21.0533
330 1 -5.89312 17.019 21.0662
349 1 -7.28485 17.9421 18.6868
350 1 -7.26674 19.6721 21.1692
369 1 -8.99849 20.3556 18.7761
569 1 -5.83026 20.5143 18.6689
351 1 -7.35402 18.0074 23.4824
371 1 -8.83751 20.3481 23.468
571 1 -5.8287 20.5519 23.3272
530 1 -2.91778 17.1343 21.0966
549 1 -4.42598 17.901 18.726
550 1 -4.42519 19.4806 20.9679
749 1 -1.43779 17.852 18.7581
750 1 -1.42399 19.6587 21.0985
769 1 -2.76295 20.5176 18.7328
551 1 -4.40383 17.915 23.3666
751 1 -1.46449 17.881 23.3476
771 1 -2.90814 20.5435 23.3283
730 1 0.069125 16.9715 21.0818
930 1 2.95911 17.0115 21.0979
949 1 1.54161 17.8859 18.7419
950 1 1.43629 19.5914 21.0062
1149 1 4.61339 17.8534 18.6848
1150 1 4.44908 19.5642 21.0753
969 1 0.0623423 20.3599 18.6398
1169 1 3.0219 20.2908 18.474
951 1 1.48403 17.9458 23.4261
1151 1 4.54573 17.8699 23.3456
971 1 0.0506591 20.4486 23.4864
1171 1 3.09857 20.4564 23.479
1130 1 6.01934 17.0715 21.014
1330 1 8.92936 16.9433 21.0375
1349 1 7.46612 17.9608 18.5846
1350 1 7.62268 19.6571 20.8545
1369 1 5.92309 20.5127 18.6277
1569 1 8.85429 20.5471 18.5486
1351 1 7.41801 17.9266 23.2894
1371 1 5.94511 20.4096 23.3267
1571 1 8.9936 20.4166 23.512
1530 1 11.9011 17.1174 21.0727
1549 1 10.3149 17.8554 18.8323
1550 1 10.3455 19.6285 21.0704
1749 1 13.4361 17.9842 18.6486
1750 1 13.3885 19.6215 21.0331
1769 1 11.7679 20.4916 18.6993
1551 1 10.3029 17.9127 23.339
1751 1 13.3517 17.9841 23.3626
1771 1 11.956 20.4549 23.3313
149 1 -10.2282 17.8476 18.6262
1730 1 14.7082 17.0682 20.9891
1930 1 17.7075 17.0958 21.0337
1949 1 16.2 17.829 18.7235
1950 1 16.2145 19.4756 21.1736
169 1 17.6094 20.4534 18.6934
1969 1 14.6944 20.4664 18.6815
151 1 -10.2932 17.9603 23.3614
1951 1 16.4295 17.8206 23.4056
171 1 -11.7102 20.3672 23.3644
1971 1 14.7855 20.4241 23.4177
209 1 -11.8158 25.4942 18.797
170 1 -11.9295 22.1503 21.0161
190 1 -13.3146 24.7364 21.1815
389 1 -10.3747 22.9058 18.6554
390 1 -10.3401 24.6722 20.9762
211 1 3.02419 0.034908 23.3842
391 1 -10.2796 22.9706 23.3161
409 1 5.95773 0.169095 18.6855
609 1 -5.81857 25.4906 18.4163
370 1 -8.80994 22.1821 21.1478
570 1 -5.85315 22.1382 21.0566
589 1 -7.44228 22.9842 18.6153
590 1 -7.3919 24.5696 20.9928
411 1 -8.75405 25.512 23.3262
611 1 -5.99744 25.4775 23.2872
591 1 -7.33167 22.9203 23.4226
809 1 11.7684 0.0242234 18.7188
770 1 -2.93364 22.3294 20.986
789 1 -4.31457 23.0829 18.5467
790 1 -4.53215 24.6747 20.92
989 1 -1.32513 22.965 18.795
990 1 -1.60619 24.7301 20.9854
811 1 11.6445 0.0298267 23.2871
791 1 -4.30631 23.0724 23.4024
991 1 -1.42376 22.9919 23.3353
1009 1 14.8693 0.0429838 18.6889
1209 1 2.86788 25.4058 18.7131
970 1 -0.0110028 22.0943 21.075
1170 1 2.9137 22.0969 21.012
1189 1 1.54891 22.9023 18.6417
1190 1 1.41613 24.6058 21.0486
1389 1 4.38337 22.8279 18.7885
1390 1 4.48026 24.7684 21.1442
1011 1 14.5926 0.0390622 23.367
1211 1 17.6932 0.0378071 23.4366
1191 1 1.58958 22.836 23.316
1391 1 4.27041 23.1357 23.3267
1409 1 5.81382 25.4759 18.7602
1609 1 23.5006 0.0438945 18.7016
1370 1 5.83256 22.1196 21.1126
1570 1 8.91456 22.1196 21.0091
1589 1 7.39677 22.8824 18.8149
1590 1 7.4113 24.7982 20.9482
1411 1 20.7637 0.0628634 23.3978
1611 1 23.4921 0.0223464 23.4439
1591 1 7.38771 22.9685 23.2989
1809 1 26.487 0.0868486 18.6354
1770 1 11.7724 22.0344 20.8838
1789 1 10.2683 23.0896 18.574
1790 1 10.3801 24.6049 21.0331
1989 1 13.1726 23.0461 18.7269
1990 1 13.2706 24.6692 21.0354
1811 1 26.5272 0.0688887 23.4227
1791 1 10.2634 22.946 23.4535
1991 1 13.2673 23.1028 23.3849
9 1 0.0683615 0.125447 18.8397
189 1 16.0247 22.9012 18.6296
1970 1 14.6783 22.0867 21.1251
11 1 14.6735 25.495 23.4168
191 1 -13.1513 23.0325 23.4823
32 1 -1.57053 4.30219 25.8178
12 1 -0.0520539 1.68114 25.7095
212 1 2.86445 1.74865 25.8281
232 1 1.49059 4.22356 25.7583
432 1 4.49614 4.26606 25.8055
412 1 5.83825 1.75928 25.6639
612 1 8.75481 1.75168 25.6788
632 1 7.35814 4.27624 25.7296
812 1 11.7171 1.73081 25.6642
832 1 10.3016 4.21971 25.7354
1032 1 13.2942 4.18553 25.708
1012 1 14.6556 1.78465 25.6913
1212 1 17.7061 1.65672 25.8731
1232 1 16.118 4.3366 25.7192
1432 1 19.078 4.25014 25.8342
1412 1 20.6693 1.88941 25.7734
1612 1 23.6026 1.74087 25.6343
1632 1 22.1596 4.36485 25.7849
1812 1 26.5008 1.77561 25.7191
1832 1 24.9656 4.24981 25.6827
52 1 -3.02362 6.86231 25.8011
72 1 -4.51868 9.40671 25.6703
272 1 -1.5499 9.48418 25.711
252 1 -0.135236 6.8835 25.7358
452 1 2.97325 6.88378 25.7719
472 1 1.4629 9.22954 25.8313
672 1 4.36434 9.31913 25.7676
652 1 5.87246 6.92734 25.7233
852 1 8.89035 6.75512 25.6566
872 1 7.40773 9.39015 25.7541
1052 1 11.8107 6.82175 25.7857
1072 1 10.4815 9.34335 25.6905
1272 1 13.3827 9.34443 25.6813
1252 1 14.67 6.78534 25.7205
1452 1 17.6111 6.81975 25.8129
1472 1 16.2419 9.34021 25.8558
1672 1 19.2164 9.34676 25.7981
1652 1 20.6854 6.76473 25.7273
1852 1 23.5279 6.86304 25.6195
1872 1 22.0358 9.34023 25.8921
92 1 -6.02654 11.8878 25.7961
112 1 -7.30381 14.4923 25.6871
292 1 -2.90442 11.9058 25.8352
312 1 -4.24771 14.4278 25.7967
512 1 -1.32353 14.4076 25.7243
492 1 0.125722 11.9711 25.8587
692 1 2.95857 11.9069 25.8059
712 1 1.60979 14.59 25.7884
912 1 4.4897 14.5072 25.7764
892 1 5.89048 11.9334 25.9502
1092 1 8.78272 11.836 25.8667
1112 1 7.33467 14.3878 25.8164
1292 1 11.7386 11.9261 25.6575
1312 1 10.2403 14.4586 25.7031
1512 1 13.1882 14.4947 25.6049
1492 1 14.7564 11.8615 25.6369
1692 1 17.5894 11.9665 25.9755
1712 1 16.2063 14.4182 25.7191
1912 1 19.2065 14.3997 25.8626
1892 1 20.6217 11.9048 25.7033
152 1 -10.3587 19.5078 25.7628
132 1 -8.86207 17.0585 25.7787
332 1 -5.86276 17.0031 25.6954
352 1 -7.25272 19.5017 25.8175
532 1 -3.0619 17.0434 25.6226
552 1 -4.45078 19.7056 25.6731
752 1 -1.41495 19.3392 25.7102
732 1 0.0556425 16.9377 25.6754
932 1 2.80633 17.081 25.6827
952 1 1.49494 19.6117 25.7431
1152 1 4.53407 19.5608 25.8472
1132 1 5.85796 17.0126 25.7759
1332 1 8.7515 16.977 25.699
1352 1 7.35581 19.5937 25.7047
1532 1 11.8485 17.0909 25.6098
1552 1 10.2029 19.4121 25.864
1752 1 13.1188 19.5161 25.8124
1732 1 14.8277 17.061 25.6892
1932 1 17.7943 16.9371 25.7434
1952 1 16.2568 19.4513 25.7455
172 1 -11.6392 21.9583 25.7468
192 1 -13.0843 24.6318 25.7599
392 1 -10.1982 24.6383 25.6788
372 1 -8.86099 22.1217 25.7272
572 1 -5.93962 22.2455 25.7835
592 1 -7.44154 24.6071 25.7695
772 1 -3.05194 22.1606 25.7909
792 1 -4.47648 24.73 25.6143
992 1 -1.52172 24.7376 25.7729
972 1 -0.0255388 21.9632 25.7565
1172 1 3.04977 22.1289 25.8925
1192 1 1.38527 24.546 25.7136
1392 1 4.4531 24.7695 25.7694
1372 1 6.00781 22.1795 25.6755
1572 1 8.7132 22.0943 25.9021
1592 1 7.28362 24.8798 25.776
1772 1 11.7175 21.9471 25.8325
1792 1 10.3666 24.6176 25.8469
1992 1 13.3315 24.6353 25.6863
1972 1 14.7871 22.0504 25.6182
34 1 -1.37583 4.25602 30.364
14 1 -0.192072 1.58999 30.5195
253 1 -0.0459815 5.08429 28.0435
255 1 -0.161861 5.11775 32.8717
214 1 2.79422 1.68578 30.4541
233 1 1.3489 2.53545 28.0396
234 1 1.47893 4.14355 30.4728
433 1 4.46959 2.42364 28.1431
434 1 4.37884 4.07346 30.4582
453 1 2.94715 5.10305 28.0711
235 1 1.33279 2.62484 32.8706
435 1 4.43716 2.5697 32.8882
455 1 2.83379 5.00839 32.9756
414 1 5.84874 1.74448 30.5475
614 1 8.89922 1.70276 30.3858
633 1 7.30826 2.5771 27.9794
634 1 7.4484 4.16762 30.4045
653 1 5.84716 5.06225 28.1688
853 1 8.66801 5.08972 28.0387
635 1 7.46665 2.48936 32.7989
655 1 6.0128 5.09361 32.761
855 1 8.80427 5.11367 32.9211
814 1 11.8846 1.80096 30.4797
833 1 10.2867 2.62952 28.1006
834 1 10.4215 4.3338 30.4776
1033 1 13.1855 2.65113 28.1639
1034 1 13.2406 4.33479 30.5328
1014 1 14.7368 1.67963 30.4886
1053 1 11.7122 5.17054 28.054
1253 1 14.4925 5.25322 28.2316
835 1 10.2959 2.58023 32.7858
1035 1 13.3818 2.71362 32.8758
1055 1 11.6741 5.14099 32.9542
1255 1 14.8462 5.21962 32.7461
1214 1 17.6804 1.81155 30.3958
1233 1 15.9278 2.52969 28.0581
1234 1 16.1213 4.2046 30.406
1433 1 18.9759 2.54573 28.1731
1434 1 19.188 4.29735 30.3547
1453 1 17.5633 5.17306 28.1233
1235 1 16.2538 2.5615 32.7353
1435 1 19.1321 2.53533 32.6446
1455 1 17.7131 5.05313 32.6899
1414 1 20.6983 1.68265 30.502
1614 1 23.5629 1.73023 30.5681
1633 1 22.0551 2.5304 28.1432
1634 1 22.3048 4.3497 30.5204
1653 1 20.6908 5.10192 28.1611
1853 1 23.5825 5.24806 28.0285
1635 1 22.1714 2.51158 32.8645
1655 1 20.7592 4.91719 32.8884
1855 1 23.6469 5.1402 32.9454
33 1 27.9663 2.56349 27.9686
1814 1 26.551 1.76675 30.4954
1833 1 25.04 2.5921 28.0725
1834 1 25.1803 4.25395 30.4626
53 1 26.4307 5.1775 28.0291
35 1 27.8831 2.52539 32.7319
1835 1 25.1125 2.62088 32.7413
55 1 26.5591 5.03689 32.9106
54 1 -2.88947 6.65443 30.5314
74 1 -4.39127 9.38348 30.4431
273 1 -1.49742 7.76235 28.1373
274 1 -1.33038 9.27172 30.5429
254 1 0.0940759 6.66859 30.5642
293 1 -2.9107 10.3972 28.0822
493 1 0.0348467 10.2338 28.1284
275 1 -1.48275 7.65236 32.9496
295 1 -3.01699 10.1916 32.7961
495 1 -0.124293 10.1556 32.8827
454 1 2.98346 6.70494 30.4934
473 1 1.52901 7.67202 28.1987
474 1 1.49259 9.18715 30.4988
673 1 4.32383 7.65597 28.1463
674 1 4.44478 9.36104 30.5293
693 1 2.98198 10.1221 28.1427
475 1 1.518 7.62436 32.9295
675 1 4.40975 7.60795 32.7426
695 1 2.93684 10.1822 32.7727
654 1 5.87121 6.68675 30.5416
854 1 8.76645 6.73154 30.5576
873 1 7.34117 7.54379 28.0722
874 1 7.25287 9.26611 30.5143
893 1 5.96697 10.1756 28.1524
1093 1 8.83363 10.0494 28.036
875 1 7.34833 7.71911 32.9425
895 1 5.97771 10.1363 32.9378
1095 1 8.84194 10.2101 32.6156
1054 1 11.7669 6.91066 30.4446
1073 1 10.2671 7.68087 28.0846
1074 1 10.1973 9.25564 30.4331
1273 1 13.2332 7.70756 28.201
1274 1 13.2819 9.40619 30.5273
1254 1 14.7559 6.89555 30.557
1293 1 11.8083 10.236 28.1208
1075 1 10.3632 7.66165 32.9089
1275 1 13.2715 7.61219 32.8515
1295 1 11.7626 10.1899 32.8048
1454 1 17.7357 6.85389 30.4317
1473 1 16.1241 7.70674 28.1642
1474 1 16.2244 9.36209 30.5377
1673 1 19.1453 7.61325 28.2401
1674 1 19.1744 9.4666 30.5473
1493 1 14.7564 10.1538 28.1415
1693 1 17.6982 10.2438 28.1953
1475 1 16.2605 7.70618 32.8166
1675 1 19.1527 7.7127 32.748
1495 1 14.8358 10.2627 32.945
1695 1 17.7422 10.1654 32.9462
1654 1 20.7658 6.78908 30.5772
1854 1 23.7971 6.88136 30.5028
1873 1 22.0457 7.74496 28.1739
1874 1 21.9846 9.36807 30.4026
93 1 23.5227 10.3017 28.1344
1893 1 20.5301 10.4168 28.045
1875 1 22.1456 7.66765 32.8851
95 1 23.5192 10.2179 32.7073
1895 1 20.6697 10.2882 32.7172
73 1 -4.42819 7.76879 28.1064
75 1 24.9681 7.63241 32.8886
94 1 -5.79293 11.9495 30.2919
114 1 -7.33556 14.4935 30.4806
333 1 -5.95243 15.3137 28.0864
335 1 -5.84248 15.3291 32.8138
294 1 -2.98972 11.8917 30.5484
313 1 -4.34482 12.8839 28.0828
314 1 -4.33067 14.4771 30.3929
513 1 -1.35152 12.7275 28.2142
514 1 -1.41723 14.4907 30.3718
494 1 0.0782418 11.9606 30.5446
533 1 -2.77785 15.4108 27.968
733 1 0.0707873 15.3876 28.1658
315 1 -4.51469 12.716 32.7204
515 1 -1.44963 12.8489 32.901
535 1 -3.01294 15.3618 32.7013
735 1 -0.0487107 15.3389 32.7489
694 1 2.98106 11.8492 30.4156
713 1 1.46376 12.665 28.1641
714 1 1.52835 14.585 30.4517
913 1 4.53205 12.8013 28.2461
914 1 4.39826 14.5034 30.5952
933 1 2.96569 15.3682 28.1694
715 1 1.44989 12.748 32.8412
915 1 4.48971 12.6951 32.8405
935 1 2.8711 15.5059 32.9062
894 1 5.89474 11.8035 30.4966
1094 1 8.83733 11.7868 30.3705
1113 1 7.42344 12.7887 28.2049
1114 1 7.34837 14.3235 30.4366
1133 1 5.9676 15.2635 28.1353
1333 1 8.79538 15.3013 27.9565
1115 1 7.34211 12.7176 32.835
1135 1 5.84901 15.2812 32.8051
1335 1 8.84512 15.2716 32.621
1294 1 11.856 11.8962 30.4391
1313 1 10.3705 12.665 28.1569
1314 1 10.1514 14.5495 30.3093
1513 1 13.2486 12.7882 27.9535
1514 1 13.187 14.5245 30.4042
1533 1 11.7009 15.4021 28.0582
1315 1 10.3197 12.6929 32.6631
1515 1 13.2707 12.7656 32.8054
1535 1 11.598 15.1845 32.9355
1494 1 14.7895 11.9577 30.4245
1694 1 17.7272 11.9024 30.5164
1713 1 16.0668 12.7966 28.1008
1714 1 16.2497 14.3336 30.5015
1913 1 19.0359 12.8822 28.2306
1914 1 19.2709 14.5719 30.3717
1733 1 14.6404 15.3425 28.1526
1933 1 17.5388 15.2725 28.1489
1715 1 16.3227 12.6079 32.801
1915 1 19.1674 12.9275 32.8185
1735 1 14.7113 15.1193 32.8261
1935 1 17.7588 15.3267 32.7165
113 1 22.0516 12.7765 28.0975
1894 1 20.6319 12.0415 30.5366
133 1 -8.73944 15.2379 28.0458
115 1 22.0963 12.7151 32.7704
135 1 -8.70699 15.366 32.7486
154 1 -10.3173 19.5862 30.5892
134 1 -8.74606 17.0606 30.3311
334 1 -5.8116 17.089 30.3783
353 1 -7.24433 17.8634 28.1207
354 1 -7.25678 19.5605 30.329
373 1 -8.99159 20.4339 28.1352
573 1 -5.83579 20.4477 27.9522
355 1 -7.32422 17.9249 32.8005
375 1 -8.89446 20.3344 32.6839
575 1 -5.85626 20.5849 32.6098
534 1 -2.93743 17.1147 30.4021
553 1 -4.37276 17.8321 27.9887
554 1 -4.41309 19.7723 30.2749
753 1 -1.41114 17.8385 27.9876
754 1 -1.50671 19.5567 30.379
773 1 -2.84184 20.4128 27.9269
555 1 -4.40172 17.8687 32.7393
755 1 -1.55111 17.7371 32.7912
775 1 -2.92606 20.4718 32.676
734 1 -0.00510499 17.1383 30.4061
934 1 2.90005 17.0913 30.5688
953 1 1.47796 17.8712 28.0353
954 1 1.52966 19.4782 30.4297
1153 1 4.37374 17.9246 28.1898
1154 1 4.50641 19.553 30.5026
973 1 -0.0912629 20.4333 28.0156
1173 1 2.86919 20.3702 28.0503
955 1 1.51719 18.0332 32.8951
1155 1 4.56118 17.8502 32.7495
975 1 0.026371 20.3964 32.7124
1175 1 3.053 20.4388 32.8841
1134 1 5.89109 16.981 30.4068
1334 1 8.78083 16.9668 30.3076
1353 1 7.38293 17.9522 28.0318
1354 1 7.2601 19.6274 30.5204
1373 1 5.96474 20.567 28.0311
1573 1 8.8539 20.3983 28.1204
1355 1 7.42671 17.7442 32.6864
1375 1 6.04829 20.4532 32.8511
1575 1 8.80119 20.5515 32.6981
1534 1 11.8261 16.936 30.4945
1553 1 10.3399 17.7687 28.0715
1554 1 10.3559 19.6086 30.3997
1753 1 13.1855 17.8331 28.0802
1754 1 13.3802 19.4928 30.4409
1773 1 11.6962 20.4012 28.1621
1555 1 10.4092 17.7389 32.7408
1755 1 13.3869 17.8109 32.8228
1775 1 12.025 20.3845 32.8691
153 1 -10.1718 17.7766 28.1739
1734 1 14.7736 16.9813 30.4087
1934 1 17.7653 16.8949 30.3846
1953 1 16.2783 17.7358 28.1743
1954 1 16.3722 19.4229 30.4434
173 1 -11.7406 20.3889 28.1946
1973 1 14.7005 20.3807 28.0659
155 1 19.2422 17.7427 32.7624
1955 1 16.1838 17.6797 32.9252
175 1 17.5536 20.3667 32.8416
1975 1 14.8186 20.4138 32.8727
213 1 2.93186 0.0168867 28.1616
174 1 -11.7428 22.1473 30.6086
194 1 -13.3375 24.5585 30.3584
393 1 -10.3724 23.1017 28.0977
394 1 -10.3506 24.6688 30.4812
215 1 2.90527 0.231582 32.7033
395 1 -10.3188 22.9357 32.8263
413 1 5.92585 0.0443752 28.0367
613 1 -5.89862 25.4345 28.0216
374 1 -8.78223 22.0924 30.4451
574 1 -6.03765 22.1708 30.4072
593 1 -7.36038 22.9935 28.0917
594 1 -7.40352 24.7573 30.3711
415 1 5.84062 0.100595 32.7519
615 1 8.82706 0.145849 32.7931
595 1 -7.478 23.1204 32.8744
813 1 11.7832 0.0571711 28.1512
774 1 -3.00014 22.1279 30.4011
793 1 -4.43336 23.055 28.1129
794 1 -4.39224 24.8436 30.5272
993 1 -1.4374 22.9757 28.167
994 1 -1.49053 24.8173 30.4379
815 1 11.9129 0.106035 32.8955
795 1 -4.45166 23.0458 32.6781
995 1 -1.51471 23.0563 32.7654
1013 1 -0.123989 25.4468 28.0841
1213 1 17.4654 0.0359286 28.1325
974 1 0.134662 22.0586 30.4875
1174 1 3.07245 22.1151 30.588
1193 1 1.46183 23.1114 28.0954
1194 1 1.51906 24.6748 30.4338
1393 1 4.34146 22.9483 28.1684
1394 1 4.33484 24.6229 30.5377
1015 1 14.7208 0.0343467 32.729
1215 1 17.5855 0.0537572 32.7888
1195 1 1.433 22.8955 32.8652
1395 1 4.54153 22.9778 32.7918
1413 1 20.3201 0.0500884 28.1304
1613 1 8.77056 25.4777 28.0606
1374 1 6.05897 22.1631 30.5198
1574 1 8.81675 22.2002 30.3292
1593 1 7.37599 22.9205 28.0694
1594 1 7.32731 24.7316 30.4833
1415 1 5.7921 25.5184 32.7084
1615 1 8.90494 25.5147 32.7918
1595 1 7.5414 23.0652 32.8751
1813 1 26.4916 0.148861 28.0345
1774 1 11.8076 22.0715 30.348
1793 1 10.4023 22.9815 28.2497
1794 1 10.4096 24.7235 30.4145
1993 1 13.2485 23.1449 28.0104
1994 1 13.2377 24.6683 30.4424
1815 1 26.7507 0.0648764 32.7536
1795 1 10.404 22.9179 32.6375
1995 1 13.2361 22.9262 32.8175
13 1 14.539 25.4663 27.9789
193 1 16.2575 22.7655 27.9977
1974 1 14.6158 22.0409 30.3742
15 1 29.4047 0.0234627 32.8649
195 1 -13.2062 23.0519 32.8251
36 1 -1.52943 4.21633 35.1925
16 1 -0.047555 1.67514 35.2429
216 1 2.68488 1.76409 35.2441
236 1 1.43138 4.32 35.3175
436 1 4.52204 4.2585 35.1665
416 1 5.91822 1.60939 35.1862
616 1 8.74245 1.58408 35.2225
636 1 7.45542 4.17114 35.2487
816 1 11.7169 1.71584 35.1854
836 1 10.2987 4.2653 35.1728
1036 1 13.2215 4.2889 35.1325
1016 1 14.7359 1.79538 35.1935
1216 1 17.6802 1.78086 35.1496
1236 1 16.1717 4.34542 35.1247
1436 1 19.173 4.3528 35.0883
1416 1 20.5467 1.69671 35.2665
1616 1 23.4768 1.64352 35.1331
1636 1 22.1092 4.29362 35.1833
1816 1 26.4471 1.74003 35.2102
1836 1 24.9561 4.3126 35.2783
56 1 -2.95587 6.81786 35.3523
76 1 -4.383 9.41317 35.2059
276 1 -1.41781 9.37793 35.1911
256 1 -0.0609547 6.75575 35.2235
456 1 2.90099 6.92712 35.1144
476 1 1.49273 9.33094 35.2885
676 1 4.27883 9.4024 35.1744
656 1 5.84748 6.77911 35.2327
856 1 8.76498 6.9679 35.186
876 1 7.40524 9.43556 35.2211
1056 1 11.8596 6.89179 35.2313
1076 1 10.2853 9.38417 35.0859
1276 1 13.2598 9.47302 35.1119
1256 1 14.727 6.95209 35.2445
1456 1 17.7658 6.78929 35.2072
1476 1 16.227 9.31644 35.3544
1676 1 19.206 9.38512 35.1111
1656 1 20.4967 6.92311 35.136
1856 1 23.6355 6.79677 35.1857
1876 1 22.1554 9.36948 35.0645
96 1 -5.92895 11.7534 35.2119
116 1 -7.37477 14.3709 35.2541
296 1 -2.83896 11.8819 35.0233
316 1 -4.50846 14.4581 35.0183
516 1 -1.47241 14.5767 35.2893
496 1 0.0351472 11.8002 35.1836
696 1 2.95718 11.826 35.0342
716 1 1.49776 14.4424 34.9671
916 1 4.43968 14.4833 35.0933
896 1 5.8853 11.8503 35.3082
1096 1 8.95947 11.9225 35.0453
1116 1 7.53942 14.4223 35.1095
1296 1 11.8061 11.7539 35.0161
1316 1 10.4112 14.3943 35.239
1516 1 13.2699 14.469 35.061
1496 1 14.878 11.9333 35.1647
1696 1 17.7281 11.9182 35.4403
1716 1 16.1815 14.5625 35.0478
1916 1 19.1403 14.4404 35.2151
1896 1 20.5745 11.9297 35.0878
156 1 -10.4015 19.5936 34.9733
136 1 -8.69497 17.0945 35.2066
336 1 -5.78926 17.0324 35.1816
356 1 -7.43572 19.6963 35.0603
536 1 -2.9176 17.117 35.1778
556 1 -4.51548 19.6621 35.0441
756 1 -1.45987 19.6706 34.9955
736 1 -0.0354868 17.0671 35.1098
936 1 2.95518 16.9769 35.1454
956 1 1.55623 19.5944 35.143
1156 1 4.68903 19.5339 35.1486
1136 1 6.11315 17.013 35.2569
1336 1 8.9321 17.1104 35.1418
1356 1 7.42547 19.639 35.0758
1536 1 11.7084 17.0648 35.055
1556 1 10.4608 19.5157 35.2487
1756 1 13.2262 19.6022 35.2587
1736 1 14.7376 16.9941 35.264
1936 1 17.7037 16.9802 35.3471
1956 1 16.0665 19.5004 35.1556
176 1 -11.8617 22.0629 35.1869
196 1 -13.4172 24.6698 35.0417
396 1 -10.4397 24.7039 35.1777
376 1 -8.95301 22.1528 35.2294
576 1 -5.95781 22.1863 35.1192
596 1 -7.49398 24.6413 35.1874
776 1 -3.08372 22.2423 35.0612
796 1 -4.44592 24.6333 35.1239
996 1 -1.34428 24.626 35.1466
976 1 0.00339007 22.0082 35.1133
1176 1 2.99898 22.0402 35.0094
1196 1 1.53874 24.5565 35.2059
1396 1 4.51138 24.6403 35.0202
1376 1 6.05985 22.1296 35.2531
1576 1 8.92837 22.1038 35.1062
1596 1 7.44355 24.7479 35.0911
1776 1 11.8577 22.1991 35.1842
1796 1 10.2636 24.6472 34.9893
1996 1 13.1416 24.5896 35.1882
1976 1 14.6971 22.0559 35.165
38 1 -1.4632 4.25991 39.9243
18 1 0.0317899 1.76039 39.9386
257 1 -0.0754342 5.16188 37.5671
218 1 3.04375 1.72792 39.9438
237 1 1.36506 2.68902 37.4151
238 1 1.42297 4.20383 39.8386
437 1 4.32687 2.47726 37.4647
438 1 4.52337 4.16457 39.9168
457 1 2.93703 5.14751 37.6021
418 1 5.78723 1.63191 39.8249
618 1 8.76297 1.7763 39.9933
637 1 7.28067 2.54381 37.6726
638 1 7.35282 4.27866 39.934
657 1 5.90872 5.04522 37.4526
857 1 8.89177 5.11332 37.5296
818 1 11.785 1.86149 39.8312
837 1 10.0915 2.64323 37.689
838 1 10.3049 4.3887 39.7215
1037 1 13.3886 2.54254 37.6071
1038 1 13.3125 4.2896 39.8828
1018 1 14.7974 1.64491 39.8495
1057 1 11.9067 5.16261 37.4788
1257 1 14.741 5.1171 37.4454
1218 1 17.702 1.69855 39.8989
1237 1 16.3671 2.50687 37.4559
1238 1 16.363 4.19482 39.9467
1437 1 19.2525 2.45909 37.6329
1438 1 19.1674 4.24578 39.8488
1457 1 17.735 5.13009 37.4017
1418 1 20.7922 1.72587 39.9839
1618 1 23.5938 1.61893 39.8691
1637 1 22.1193 2.51867 37.5748
1638 1 22.1812 4.2848 39.8902
1657 1 20.6621 5.03187 37.3777
1857 1 23.5816 5.10547 37.6609
37 1 27.9022 2.52434 37.5762
1818 1 26.4712 1.65338 39.7869
1837 1 24.9656 2.41523 37.4298
1838 1 24.9513 4.14387 39.9065
57 1 26.5551 4.99723 37.573
58 1 -2.83044 6.74857 39.9005
78 1 -4.45831 9.34095 39.8857
277 1 -1.45842 7.76108 37.5362
278 1 -1.5855 9.33464 39.8649
258 1 0.0410592 6.80194 39.8836
297 1 -2.98086 10.3632 37.493
497 1 0.0675881 10.3097 37.5778
458 1 3.03684 6.75866 39.8467
477 1 1.38999 7.59234 37.5724
478 1 1.41289 9.23297 39.9744
677 1 4.32152 7.61749 37.5266
678 1 4.38843 9.3637 39.937
697 1 2.95303 10.2115 37.6701
658 1 5.8388 6.94899 39.775
858 1 8.97996 6.90394 39.8815
877 1 7.42784 7.69103 37.5836
878 1 7.35528 9.58352 39.8003
897 1 5.80974 10.1171 37.4448
1097 1 8.77792 10.2629 37.5769
1058 1 11.8 6.73261 39.937
1077 1 10.3429 7.66136 37.5923
1078 1 10.3083 9.3636 39.8534
1277 1 13.1029 7.74453 37.4262
1278 1 13.1497 9.42434 39.9824
1258 1 14.6706 6.73702 39.8773
1297 1 11.6792 10.2035 37.4276
1458 1 17.751 6.82638 39.8934
1477 1 16.1763 7.66941 37.5994
1478 1 16.2571 9.47002 39.8884
1677 1 19.2032 7.66602 37.631
1678 1 19.2721 9.46771 39.8801
1497 1 14.6777 10.3317 37.5089
1697 1 17.7103 10.1977 37.5049
1658 1 20.7007 6.80509 39.9152
1858 1 23.6247 6.95748 39.9914
1877 1 22.0809 7.65207 37.517
1878 1 22.0523 9.40599 39.856
97 1 -5.83121 10.1769 37.634
1897 1 20.5492 10.2254 37.5363
77 1 -4.38522 7.7133 37.4444
98 1 -5.79051 11.8436 39.9902
118 1 -7.18999 14.5049 39.7776
337 1 -5.88497 15.3739 37.5329
298 1 -2.90461 11.921 39.9311
317 1 -4.45623 12.7565 37.5568
318 1 -4.41128 14.3891 39.9401
517 1 -1.49798 12.9126 37.5531
518 1 -1.2351 14.4751 39.8038
498 1 0.0563379 11.843 39.8894
537 1 -3.09445 15.355 37.5198
737 1 -0.0220149 15.3893 37.6088
698 1 2.81078 11.8554 39.9222
717 1 1.60341 12.9465 37.3745
718 1 1.72936 14.4645 39.8097
917 1 4.55717 12.5113 37.5573
918 1 4.54937 14.3577 39.759
937 1 3.04426 15.3285 37.4345
898 1 5.88293 11.8372 39.8873
1098 1 8.88376 11.9113 39.8837
1117 1 7.30452 12.6911 37.4866
1118 1 7.40166 14.3687 39.8743
1137 1 5.82453 15.2651 37.4453
1337 1 8.86014 15.3921 37.62
1298 1 11.823 11.9708 39.9275
1317 1 10.3005 12.7742 37.6315
1318 1 10.4554 14.4985 39.8472
1517 1 13.2156 12.6412 37.3333
1518 1 13.4777 14.4607 39.7547
1537 1 11.8857 15.1538 37.4341
1498 1 14.595 11.8251 39.9101
1698 1 17.7127 12.0926 39.9612
1717 1 16.2581 12.8673 37.5905
1718 1 16.326 14.4749 40.0438
1917 1 19.2597 12.8008 37.6925
1918 1 19.172 14.5313 40.0399
1737 1 14.9723 15.1866 37.424
1937 1 17.7694 15.1745 37.6315
117 1 -7.2837 12.6853 37.4614
1898 1 20.7208 12.1078 39.9381
137 1 20.593 15.2546 37.4808
158 1 -10.4514 19.6168 39.9894
138 1 -8.86255 16.9482 39.9111
338 1 -5.90758 17.0353 39.8078
357 1 -7.34647 17.9574 37.5014
358 1 -7.34542 19.5795 39.9608
377 1 -8.92367 20.5446 37.4599
577 1 -5.97561 20.5326 37.4616
538 1 -3.17509 16.9251 39.8207
557 1 -4.42402 18.1043 37.4771
558 1 -4.29805 19.4913 39.9208
757 1 -1.55126 17.8373 37.4154
758 1 -1.51006 19.5027 39.8226
777 1 -2.9966 20.5184 37.3565
738 1 0.0507744 17.0695 39.8722
938 1 3.06656 17.1529 39.7246
957 1 1.46547 17.915 37.4071
958 1 1.47342 19.648 39.86
1157 1 4.62561 17.8807 37.3742
1158 1 4.43879 19.4999 39.796
977 1 0.00757351 20.3563 37.3031
1177 1 2.97347 20.3774 37.5051
1138 1 5.91829 16.9683 39.8923
1338 1 8.83239 17.0501 39.8643
1357 1 7.42753 17.8475 37.5325
1358 1 7.3488 19.5289 39.9397
1377 1 5.97883 20.5379 37.5785
1577 1 8.93324 20.3805 37.5059
1538 1 11.6507 17.0767 39.8503
1557 1 10.3485 17.8317 37.4963
1558 1 10.2386 19.5137 39.905
1757 1 13.1864 17.7443 37.5324
1758 1 13.1807 19.6759 39.8438
1777 1 11.7097 20.3811 37.5398
157 1 -10.2394 17.9366 37.6222
1738 1 14.5943 17.0633 39.8831
1938 1 17.7142 17.046 40.0664
1957 1 16.2337 17.8073 37.6803
1958 1 16.1929 19.6514 39.9346
177 1 17.6898 20.301 37.4488
1977 1 14.7437 20.2239 37.6753
217 1 2.93774 0.0213041 37.5198
178 1 -11.721 22.1199 39.8359
198 1 -13.2337 24.746 39.8613
397 1 -10.4282 22.9753 37.4434
398 1 -10.3957 24.7038 39.7728
417 1 -8.69342 25.4532 37.5928
617 1 8.94231 0.0195377 37.5114
378 1 -8.72479 22.0621 39.9061
578 1 -5.87497 22.1635 39.9479
597 1 -7.47433 22.9737 37.5508
598 1 -7.34429 24.6479 39.9281
817 1 11.8232 0.0343488 37.3302
778 1 -2.96124 22.0867 39.8313
797 1 -4.40675 22.9087 37.5156
798 1 -4.46369 24.8241 39.8
997 1 -1.37954 23.0254 37.3896
998 1 -1.49682 24.684 39.8874
1017 1 14.6427 0.0840321 37.5611
1217 1 2.93937 25.3908 37.6175
978 1 -0.0414561 21.9642 39.7441
1178 1 2.8825 22.0756 39.8377
1197 1 1.42891 22.875 37.3866
1198 1 1.33784 24.697 39.9012
1397 1 4.24245 23.0038 37.4719
1398 1 4.48673 24.5695 40.0115
1417 1 5.88512 25.3419 37.5689
1617 1 23.5951 0.0572761 37.6451
1378 1 5.82825 22.0411 39.8472
1578 1 8.90234 22.028 39.8816
1597 1 7.54964 22.9809 37.5664
1598 1 7.40053 24.6449 39.8226
1817 1 11.7732 25.4805 37.5285
1778 1 11.8063 22.1582 39.8297
1797 1 10.3024 22.9168 37.5421
1798 1 10.2463 24.5179 39.8805
1997 1 13.3403 22.9017 37.4877
1998 1 13.353 24.7725 39.9381
17 1 0.0343933 0.0680867 37.522
197 1 16.1913 22.9358 37.4307
1978 1 14.8621 22.1605 39.8213
259 1 0.0825734 5.20281 42.1918
40 1 -1.53776 4.29919 44.4929
20 1 -0.0424599 1.8124 44.5204
239 1 1.51168 2.43848 42.2464
439 1 4.38799 2.53292 42.2579
459 1 2.93804 5.06735 42.2644
220 1 2.97367 1.83638 44.6942
240 1 1.39315 4.24001 44.5454
440 1 4.41036 4.27397 44.5219
639 1 7.25467 2.46666 42.2911
659 1 5.9267 5.04129 42.2827
859 1 8.85392 5.07759 42.1611
420 1 5.92337 1.76088 44.6602
620 1 8.77092 1.82839 44.5582
640 1 7.39995 4.30424 44.508
839 1 10.1966 2.64861 42.1611
1039 1 13.2646 2.50684 42.1534
1059 1 11.8277 5.09357 42.1746
1259 1 14.6797 5.0509 42.1596
820 1 11.6251 2.07054 44.5251
840 1 10.3666 4.58148 44.5961
1040 1 13.4599 4.3031 44.6264
1020 1 14.7846 1.65893 44.5044
1239 1 16.2799 2.69566 42.1568
1439 1 19.073 2.61638 42.2688
1459 1 17.6504 5.08193 42.2283
1220 1 17.7672 1.59301 44.5248
1240 1 16.3286 4.10297 44.5424
1440 1 19.1873 4.13216 44.6836
1639 1 22.1054 2.51313 42.2478
1659 1 20.5586 5.10768 42.3721
1859 1 23.5905 5.08111 42.2018
1420 1 20.6999 1.73424 44.6072
1620 1 23.5792 1.64387 44.5193
1640 1 22.1812 4.28059 44.6066
39 1 28.0334 2.46857 42.2097
1839 1 25.1005 2.57152 42.267
59 1 26.567 5.03014 42.1939
1820 1 26.603 1.70465 44.5841
1840 1 24.9924 4.25267 44.5454
279 1 -1.53144 7.5997 42.2494
299 1 -3.03501 10.2658 42.3435
499 1 -0.0503924 10.1975 42.1934
60 1 -2.91893 6.75461 44.6304
80 1 -4.55239 9.46562 44.5919
280 1 -1.57228 9.30419 44.5644
260 1 0.0147062 7.02433 44.5611
479 1 1.48284 7.7809 42.2796
679 1 4.32637 7.61984 42.3799
699 1 2.96781 10.2946 42.3915
460 1 2.9498 6.70768 44.614
480 1 1.41123 9.33102 44.5527
680 1 4.42023 9.43859 44.6727
879 1 7.37435 7.61798 41.9907
899 1 5.80327 9.98137 42.335
1099 1 8.89694 10.2893 42.1082
660 1 5.9613 6.68446 44.5412
860 1 8.80133 6.97591 44.5935
880 1 7.42795 9.40941 44.6035
1079 1 10.2754 7.60921 42.2559
1279 1 13.3888 7.62711 42.3037
1299 1 11.8739 10.2843 42.4773
1060 1 11.8038 6.82602 44.5482
1080 1 10.3051 9.36443 44.5392
1280 1 13.42 9.36875 44.555
1260 1 14.8498 6.86615 44.609
1479 1 16.244 7.57912 42.1463
1679 1 19.2412 7.66386 42.0767
1499 1 14.9081 10.1709 42.1572
1699 1 17.7012 10.1318 42.2852
1460 1 17.7259 6.82604 44.5821
1480 1 16.2787 9.29713 44.5179
1680 1 19.3113 9.53019 44.6012
1879 1 22.0578 7.764 42.2367
99 1 -5.88863 10.3637 42.1935
1899 1 20.7005 10.332 42.2655
1660 1 20.6934 6.72315 44.6245
1860 1 23.7742 6.87278 44.5701
1880 1 21.9332 9.38327 44.6134
79 1 25.0244 7.72423 42.2743
339 1 -5.76982 15.4921 42.244
100 1 -5.99789 11.9104 44.5475
120 1 -7.19203 14.5114 44.6397
319 1 -4.43738 12.8998 42.21
519 1 -1.50236 12.8796 42.1064
539 1 -2.87258 15.2665 42.1653
739 1 0.111435 15.1548 42.2778
300 1 -2.98253 11.877 44.4768
320 1 -4.17162 14.5861 44.6696
520 1 -1.40219 14.507 44.6799
500 1 0.0164867 11.8686 44.4971
719 1 1.37476 12.7271 42.213
919 1 4.46567 12.6852 42.2787
939 1 2.93706 15.2477 42.2793
700 1 2.95549 11.9064 44.6342
720 1 1.53965 14.4868 44.6698
920 1 4.52045 14.4663 44.6358
1119 1 7.36576 12.6631 42.1819
1139 1 5.89377 15.4014 42.1788
1339 1 8.87193 15.4106 42.2251
900 1 5.95871 11.9298 44.5418
1100 1 8.94066 11.934 44.6607
1120 1 7.36752 14.4781 44.4689
1319 1 10.3956 12.8913 42.3679
1519 1 13.2755 12.815 42.2619
1539 1 11.9674 15.3905 42.1936
1300 1 11.8488 12.0309 44.6851
1320 1 10.406 14.4969 44.7503
1520 1 13.2561 14.5468 44.5377
1719 1 16.3229 12.7062 42.2799
1919 1 19.2017 12.9723 42.3315
1739 1 14.6799 15.2999 42.2805
1939 1 17.6534 15.4644 42.3228
1500 1 14.7889 11.9048 44.5151
1700 1 17.7829 11.9289 44.4977
1720 1 16.2393 14.5963 44.7087
1920 1 19.1692 14.5272 44.6107
119 1 -7.33512 12.8628 42.1835
139 1 -8.65691 15.2686 42.2564
1900 1 20.7688 12.0404 44.6036
160 1 -10.4536 19.6545 44.741
359 1 -7.37196 17.8495 42.2291
379 1 -8.8164 20.3908 42.3237
579 1 -5.87314 20.4016 42.3853
140 1 -8.74269 17.0807 44.6756
340 1 -5.88761 17.1286 44.6119
360 1 -7.35336 19.6219 44.6335
559 1 -4.42836 17.9409 42.239
759 1 -1.43986 17.8169 42.1551
779 1 -2.89622 20.4269 42.1767
540 1 -3.03355 16.9433 44.5478
560 1 -4.24655 19.551 44.6066
760 1 -1.43733 19.5708 44.6444
959 1 1.42821 17.8973 42.1004
1159 1 4.35514 17.8781 42.2252
979 1 -0.0562613 20.4197 42.2516
1179 1 2.96994 20.4392 42.1619
740 1 -0.00745415 16.9682 44.4411
940 1 2.88631 16.9505 44.5636
960 1 1.48119 19.6167 44.5847
1160 1 4.35682 19.5889 44.6923
1359 1 7.36129 17.8558 42.3778
1379 1 5.85553 20.2192 42.2043
1579 1 8.8493 20.2846 42.207
1140 1 5.90777 17.0419 44.6067
1340 1 8.94187 16.8689 44.5489
1360 1 7.44973 19.5635 44.5267
1559 1 10.219 17.8132 42.2359
1759 1 13.1719 17.8289 42.2206
1779 1 11.9076 20.4412 42.2334
1540 1 11.8611 16.9427 44.6201
1560 1 10.3777 19.4932 44.5705
1760 1 13.2762 19.5619 44.4719
159 1 -10.2537 17.8339 42.3934
1959 1 16.1304 17.9028 42.2818
179 1 -11.7709 20.4731 42.344
1979 1 14.7767 20.5159 42.2372
1740 1 14.7517 17.0807 44.6584
1940 1 17.8904 16.9741 44.5573
1960 1 16.2985 19.5969 44.6204
219 1 3.05145 0.025077 42.2731
399 1 -10.3354 22.8879 42.2733
180 1 -11.7111 22.2257 44.6712
200 1 -13.1599 24.7549 44.6729
400 1 -10.2774 24.8291 44.5992
419 1 5.87449 0.0548207 42.1033
619 1 8.84304 0.0280629 42.1944
599 1 -7.41631 23.0302 42.2666
380 1 -8.82684 22.1546 44.48
580 1 -5.75581 22.1063 44.585
600 1 -7.20967 24.7539 44.4627
819 1 11.7494 0.143998 42.2878
799 1 -4.48098 23.1029 42.2907
999 1 -1.4357 23.0751 42.1659
780 1 -2.91855 22.2452 44.5578
800 1 -4.36332 24.896 44.6541
1000 1 -1.53554 24.7932 44.54
1019 1 0.0891267 25.5201 42.2262
1219 1 17.6826 0.0178519 42.305
1199 1 1.39695 22.8543 42.1582
1399 1 4.37686 22.9819 42.2344
980 1 -0.200335 22.1161 44.5762
1180 1 2.95979 22.1054 44.5858
1200 1 1.4929 24.4833 44.5271
1400 1 4.44705 24.6722 44.4176
1419 1 6.02342 25.5151 42.1964
1619 1 8.91861 25.4387 42.0874
1599 1 7.36621 22.896 42.2258
1380 1 5.96787 21.966 44.3955
1580 1 8.89057 22.0333 44.5969
1600 1 7.35196 24.56 44.4738
1819 1 11.8414 25.5201 42.2505
1799 1 10.2855 22.9575 42.1064
1999 1 13.2779 23.0459 42.2417
1780 1 11.8213 22.1897 44.6272
1800 1 10.33 24.6759 44.5216
2000 1 13.3296 24.7216 44.6359
19 1 -14.5669 25.429 42.3559
199 1 16.2563 22.7744 42.2153
1980 1 14.7139 22.1204 44.4716
