LAMMPS data file via write_data, version 7 Feb 2024, timestep = 50000, units = metal

2000 atoms
1 atom types

0.017327177139247828 29.482672822860756 xlo xhi
0.015005686570506526 25.53274372507043 ylo yhi
-0.12152900938957241 46.92152900938957 zlo zhi
-14.732645316700102 1.3198699862048053e-15 7.4683542555208525e-16 xy xz yz

Masses

1 47.867

Atoms # atomic

22 1 -1.4655386309871252 4.255871437623171 2.2912165567772393 0 0 0
2 1 0.020994338867805083 1.7027757475832352 2.2710072325634862 0 0 0
241 1 -0.20704720471724802 5.15428868010605 46.794878350846005 0 0 -1
202 1 2.929635345548717 1.7457019900070605 2.1875910298143326 0 0 0
221 1 1.531421104959381 2.6314163937531245 -0.05706797020293815 0 0 0
222 1 1.3497900734622246 4.282166165091145 2.268855618658079 0 0 0
421 1 4.433914395150289 2.5115094608134263 -0.08830977651299149 0 0 0
422 1 4.3585729064914736 4.35074268554805 2.1509404318151115 0 0 0
441 1 2.8691972744548964 5.1260202514672715 46.90563424991814 0 0 -1
402 1 5.931509237940041 1.6727767846331765 2.2803200144962537 0 0 0
602 1 8.75816710137134 1.772896572486958 2.2415189987246253 0 0 0
621 1 7.26504977980801 2.499764821845941 0.0483600435578989 0 0 0
622 1 7.340870559327336 4.375798418926928 2.2469215632005772 0 0 0
641 1 5.885322390331005 5.081177173827108 46.79631976254674 0 0 -1
841 1 8.728857533414496 5.149674463332981 -0.09100190039769858 0 0 0
802 1 11.828355466240643 1.8394444272625692 2.277654055039976 0 0 0
821 1 10.242628121474336 2.6000114829126915 46.858685912911696 0 0 -1
822 1 10.303653965724187 4.351471043728649 2.17744474702341 0 0 0
1021 1 13.328859480442402 2.533948831726575 0.028384743660746378 0 0 0
1022 1 13.398860424981303 4.341351182539462 2.2789370764854393 0 0 0
1002 1 14.895212546989214 1.695062746257786 2.234711514384091 0 0 0
1041 1 11.810473369493256 5.158517636959258 -0.010572333034185505 0 0 0
1241 1 14.807455217084527 5.18820328962341 46.90337305338561 0 0 -1
1202 1 17.679514394886375 1.7061084266241677 2.285842200140744 0 0 0
1221 1 16.260348996299506 2.567598766552287 -0.11715328350801789 0 0 0
1222 1 16.34816660683145 4.310984787269498 2.299945107523206 0 0 0
1421 1 19.26770193333961 2.475827431866892 -0.08413201684226829 0 0 0
1422 1 19.08887778962989 4.173028482912274 2.245473422710577 0 0 0
1441 1 17.750868651421445 4.932826446339461 46.82446792298835 0 0 -1
1402 1 20.711346057654303 1.7485301934155209 2.1918723659384542 0 0 0
1602 1 23.495066082368368 1.692002496624357 2.283170126465801 0 0 0
1621 1 22.18022557859488 2.538164689613755 46.894153511102786 0 0 -1
1622 1 22.121060608621697 4.298364711055208 2.313410153145859 0 0 0
1641 1 20.722597868240026 5.166434229648195 -0.09590562434135115 0 0 0
1841 1 23.61815182650854 5.160859176139961 -0.09967858076380665 0 0 0
21 1 -1.385739332361225 2.6279528301996553 -0.08748857511082857 0 0 0
1802 1 26.563128439236966 1.8300582510341543 2.229050626975448 0 0 0
1821 1 25.024571344616767 2.5294047655258023 46.91685975130207 0 0 -1
1822 1 25.01607686689734 4.1724376058359045 2.187822610499466 0 0 0
41 1 26.58165013187789 5.02068664780735 46.909773791210704 -1 0 -1
42 1 -2.9396884022336267 6.779184570625669 2.152932220945483 0 0 0
62 1 -4.326149413978943 9.220576075715599 2.2222508991822 0 0 0
261 1 -1.38558057816418 7.5620792698538155 46.89492650978618 0 0 -1
262 1 -1.5523943092750552 9.38898858499444 2.220220244536203 0 0 0
242 1 -5.9926010177371175e-05 6.9353748448533095 2.1905731922540523 0 0 0
281 1 -2.8998542878897924 10.287053442994912 -0.07174268940645762 0 0 0
481 1 0.010349780347348465 10.239240464483363 46.85255922727857 0 0 -1
442 1 2.845968795494964 6.8941578798500185 2.255136305038835 0 0 0
461 1 1.6706099574749358 7.802053611306881 46.89315892226318 0 0 -1
462 1 1.604899815780488 9.388039928878374 2.2034213427603557 0 0 0
661 1 4.561675484875047 7.533843896780187 46.77627712262621 0 0 -1
662 1 4.526290415862934 9.25436897376342 2.143187652859093 0 0 0
681 1 3.0682458669522212 10.245073469580044 -0.1156173497655783 0 0 0
642 1 5.852302035181379 6.790557546447529 2.2239260873016553 0 0 0
842 1 8.906122309716821 6.884427169990073 2.3167977250129823 0 0 0
861 1 7.426614512122392 7.75423766762905 -0.027272736154872038 0 0 0
862 1 7.405693365868876 9.338251421798265 2.3584697089446918 0 0 0
881 1 5.985748839766722 10.30971261040335 46.91658520997719 0 0 -1
1081 1 8.983692420837253 10.16412812306863 46.904068443102545 0 0 -1
1042 1 11.882740351247836 6.963457615103596 2.3438992445967806 0 0 0
1061 1 10.34285199252314 7.572063290525833 46.87557757441794 0 0 -1
1062 1 10.291729129782949 9.540896800183996 2.2775024686537955 0 0 0
1261 1 13.353238585514262 7.608675132722453 46.85920678241178 0 0 -1
1262 1 13.383373906752247 9.30671251853205 2.270694751255197 0 0 0
1242 1 14.764603192677704 6.837601201389568 2.1237163350061112 0 0 0
1281 1 11.826057493015144 10.100623208442197 46.72366379407358 0 0 -1
1442 1 17.754663652114097 6.6869233592505575 2.2554454028155866 0 0 0
1461 1 16.4651451050276 7.6611791156592135 -0.016014195441387602 0 0 0
1462 1 16.087937285636585 9.370286334060609 2.1672163647068126 0 0 0
1661 1 19.236470763626166 7.51031764666964 0.0031395704593834145 0 0 0
1662 1 19.248095024099268 9.33414563314817 2.3021228515408363 0 0 0
1481 1 14.838551356870836 10.261274763313919 46.78181686767031 0 0 -1
1681 1 17.848319897682114 10.212522733658504 46.92023288421279 0 0 -1
1642 1 20.673847032913155 6.606133559247238 2.2891833559601036 0 0 0
1842 1 23.631969148792358 6.8748281703634415 2.147805333093802 0 0 0
1861 1 22.104561282592353 7.653787031663534 46.86917212502921 0 0 -1
1862 1 22.182720661736646 9.43164277491459 2.2439303040249605 0 0 0
81 1 -5.877058327880516 10.225340564565434 46.87666750811713 0 0 -1
1881 1 20.694301431955832 10.37962150149422 -0.08027593162648278 0 0 0
61 1 -4.314390786180398 7.701708106949614 46.91858926660828 0 0 -1
82 1 -5.758180445232981 11.760098027128715 2.168501014574812 0 0 0
102 1 -7.2480522956487565 14.378992125332644 2.1860869533732785 0 0 0
321 1 -5.789273471293778 15.498250476526938 -0.11926351996065354 0 0 0
282 1 -2.842538384952899 11.946001104565052 2.24440594284928 0 0 0
301 1 -4.316956323267464 12.80514392823425 -0.0032201824630546383 0 0 0
302 1 -4.541284027775133 14.463855197466001 2.4136816750320587 0 0 0
501 1 -1.4880668793955467 12.749720246311373 -0.05312715476600918 0 0 0
502 1 -1.4429268054385187 14.489004141361894 2.181167089154262 0 0 0
482 1 0.05580856213451999 11.874202819120816 2.3379195698130917 0 0 0
521 1 -3.0338185033395124 15.35668408242101 -0.0011371878471864438 0 0 0
721 1 -0.16251743099952806 15.426964095976444 -0.05832728469782257 0 0 0
682 1 2.9615179874349398 11.873405957264525 2.093812421072574 0 0 0
701 1 1.3413621125085873 12.653398013826125 -0.11547606233657048 0 0 0
702 1 1.5140960660895313 14.459980591531117 2.2392313370760286 0 0 0
901 1 4.441967496166596 12.782895228431075 0.007575975032149532 0 0 0
902 1 4.386313562143735 14.496599526516729 2.222029219252008 0 0 0
921 1 2.8097922628889824 15.32756074850444 -0.08176177627522144 0 0 0
882 1 5.932383835046245 11.869654515462798 2.326076901323424 0 0 0
1082 1 8.862797142269104 11.953051873763783 2.3052924132023054 0 0 0
1101 1 7.4263516385116635 12.729314852617879 -0.014700681168611673 0 0 0
1102 1 7.437907358680607 14.463748208769461 2.411755347577782 0 0 0
1121 1 6.144657151034354 15.189741387475106 0.031526327111537564 0 0 0
1321 1 8.826650424538075 15.44106613171172 -0.06597699370537927 0 0 0
1282 1 11.657258696563687 11.813672773684434 2.309919534097093 0 0 0
1301 1 10.335806476958052 12.642271326134347 -0.05521527486934112 0 0 0
1302 1 10.296502819281413 14.572045327771953 2.3397070267087163 0 0 0
1501 1 13.423431319689879 12.791106957476208 -0.07770535951057593 0 0 0
1502 1 13.244492540397662 14.456975242732796 2.4144877821297714 0 0 0
1521 1 11.904973937957017 15.203361347326208 0.03495960029459007 0 0 0
1482 1 14.871023879851816 11.89601049989832 2.2347200997014514 0 0 0
1682 1 17.654415908709794 11.80809475663134 2.178443625188385 0 0 0
1701 1 16.365776084082583 12.560287373087373 46.8540255824742 0 0 -1
1702 1 16.22747391193176 14.485690612859019 2.1640922127199436 0 0 0
1901 1 19.15633174447594 12.79499130514898 46.87255143057971 0 0 -1
1902 1 19.25015150090645 14.277060416384689 2.25910079069671 0 0 0
1721 1 14.7778834224971 15.386503699614467 -0.036227052272856886 0 0 0
1921 1 17.914885300071422 15.43889776765257 -0.0534803467825483 0 0 0
101 1 -7.24549456589254 12.806713283232018 46.890112392804234 0 0 -1
1882 1 20.625749853093527 11.949751093772328 2.301184156944444 0 0 0
121 1 -8.84358764000354 15.431767336906441 46.88125685547042 0 0 -1
142 1 -10.3382525551166 19.638054099554545 2.2615689033076563 0 0 0
122 1 -8.864847356227825 16.958863569443363 2.182289500035491 0 0 0
322 1 -5.822303789079943 16.99447547187601 2.3957248709879755 0 0 0
341 1 -7.220081260959792 17.976113436859706 -0.02759651104674099 0 0 0
342 1 -7.306971989548788 19.61831312568526 2.184240152664984 0 0 0
361 1 -8.7290214206642 20.572732015065796 -0.09223824952007323 0 0 0
561 1 -5.731949981855026 20.541315852492474 46.89074570781592 0 0 -1
522 1 -3.0904468906556266 17.030953192739055 2.3142618705864804 0 0 0
541 1 -4.306830169383483 17.95357945932965 46.8635022381393 0 0 -1
542 1 -4.487180682095535 19.53792655909094 2.3504734559397216 0 0 0
741 1 -1.5523405759302176 17.904209648229166 -0.05747509262372534 0 0 0
742 1 -1.5370834420904924 19.6696421805083 2.2887597359429552 0 0 0
761 1 -2.942199078387728 20.483062354957145 0.012176504230146948 0 0 0
722 1 -0.001341758497802513 17.1728696533837 2.3588605168199788 0 0 0
922 1 2.9654687146962635 16.99933943338753 2.224733224276681 0 0 0
941 1 1.4188502671346412 17.78646137718081 -0.1016747081468063 0 0 0
942 1 1.5200670633604936 19.554621516144497 2.2473942263924838 0 0 0
1141 1 4.577585141838347 17.61736185130324 -0.1035281102170387 0 0 0
1142 1 4.22898283557416 19.488076304057426 2.216524791709641 0 0 0
961 1 -0.09611076687334807 20.380685788559642 46.91075501847536 0 0 -1
1161 1 2.7766016457671876 20.434548248008106 -0.08691969141427051 0 0 0
1122 1 5.820291534326286 16.943719411524622 2.2350729323476237 0 0 0
1322 1 8.951054214780834 17.019736474462174 2.1876820262327703 0 0 0
1341 1 7.269340424622569 17.800559807966323 -0.00839800937938967 0 0 0
1342 1 7.297311863492664 19.535804994428965 2.1584914971100697 0 0 0
1361 1 5.7704769929283035 20.36385007689116 46.85918261688567 0 0 -1
1561 1 8.900050430493938 20.32925097565459 46.89060932424224 0 0 -1
1522 1 11.8361147862703 17.09533219704347 2.2955269221492567 0 0 0
1541 1 10.275969227458297 17.827176640692233 46.91029685744409 0 0 -1
1542 1 10.225154739284049 19.637426288863672 2.329313932153515 0 0 0
1741 1 13.140188785752969 17.715899435627016 -0.08938956701455113 0 0 0
1742 1 13.267121512232878 19.58570541347683 2.2734168298692046 0 0 0
1761 1 11.815589521620511 20.4488643592542 46.83319860914479 0 0 -1
141 1 -10.360620307744739 18.039717642226933 -0.06006310969148389 0 0 0
1722 1 14.858936220250769 16.981462085778425 2.3914261090047373 0 0 0
1922 1 17.765920279567517 16.971079037054356 2.3196209086749726 0 0 0
1941 1 16.220821557597564 17.833100331148177 0.005572839158191331 0 0 0
1942 1 16.262854889849503 19.697635650215926 2.3037243114072288 0 0 0
161 1 -11.709855007559044 20.526370662226107 -0.03374559525911715 0 0 0
1961 1 14.70112424811456 20.446708289368143 -0.11323373610272418 0 0 0
201 1 2.888332684841233 0.028418916375359742 -0.11655302166216161 0 0 0
162 1 -11.794275343974935 22.18433735451078 2.0928891977883284 0 0 0
182 1 -13.127251549842255 24.733701708653292 2.265742380642002 0 0 0
381 1 -10.324389828668652 23.08437608185568 46.876507341115584 0 0 -1
382 1 -10.317725679154295 24.671440828616475 2.071535259524061 0 0 0
401 1 -8.641443268953372 25.528459909643637 46.85171279288153 0 -1 -1
601 1 8.942410900995561 0.10635405677344265 46.882377459540336 0 0 -1
362 1 -8.715854548269016 22.039915491987355 2.2399844240373876 0 0 0
562 1 -5.875039588244945 22.212888184538624 2.1907114865131265 0 0 0
581 1 -7.38753056839028 23.022248628413998 46.899969675809785 0 0 -1
582 1 -7.305319746339961 24.607984106006665 2.2785029296225345 0 0 0
801 1 11.773082311317769 0.15155824233200765 -0.05334364268978649 0 0 0
762 1 -2.9545501163795302 22.099155094418183 2.331692214523835 0 0 0
781 1 -4.349567791304692 22.984536188236184 -0.045402192163616725 0 0 0
782 1 -4.3211151662428735 24.74158164133921 2.1681213848703784 0 0 0
981 1 -1.5360452339616473 23.037101357468604 -0.035091270477800446 0 0 0
982 1 -1.5179157662511813 24.760482397005454 2.1796048945942683 0 0 0
1001 1 14.627280382562766 0.043310971095386584 46.77516805034825 0 0 -1
1201 1 17.631876946948562 0.13965757686298597 46.84632239358629 0 0 -1
962 1 -0.0019110746361700424 22.121215544076968 2.2226450651967045 0 0 0
1162 1 2.8398211550495267 22.267884036605714 2.2274211792637693 0 0 0
1181 1 1.4855882245004188 22.98036456828994 -0.08531014533301039 0 0 0
1182 1 1.401447028234213 24.668291580431323 2.2517051249810245 0 0 0
1381 1 4.2890084956723555 22.98963990666728 46.79290116358791 0 0 -1
1382 1 4.357174454870511 24.666818089148375 2.202777638664263 0 0 0
1401 1 5.89317560397941 25.441286214734212 46.84005954441223 0 -1 -1
1601 1 8.79823774408575 25.49454054508783 46.831407248156715 0 -1 -1
1362 1 5.7325925302642995 22.143291651826285 2.068085109482306 0 0 0
1562 1 8.70405935360022 22.20969454249886 2.10882696971203 0 0 0
1581 1 7.371081035207322 22.937920041523313 46.78088247308821 0 0 -1
1582 1 7.344593462801401 24.734580476624842 2.191942283091722 0 0 0
1801 1 26.56212649460182 0.11945559035362102 -0.08539987812116602 0 0 0
1762 1 11.863559638455417 22.232329419631444 2.1237269193774755 0 0 0
1781 1 10.31167835242109 22.98135976633172 0.0055452350109957 0 0 0
1782 1 10.458110216502417 24.710537876331415 2.292433565278249 0 0 0
1981 1 13.184694093598429 23.073211820563742 -0.07026976325457536 0 0 0
1982 1 13.424688964483273 24.81359395266327 2.28877660399029 0 0 0
1 1 0.04208388259678405 0.015183062308635732 46.87399886868788 0 0 -1
181 1 16.190496522101864 22.970858729615323 46.850259487570476 -1 0 -1
1962 1 14.660371211850698 22.17063435464322 2.23447081138303 0 0 0
24 1 -1.431739183412854 4.233838414795103 6.8873021019661 0 0 0
4 1 0.04341152434990714 1.6396987232984872 7.0123235629802245 0 0 0
243 1 0.0436662818533428 5.179241654993685 4.615043463437767 0 0 0
204 1 3.0061809484160302 1.7121267476921977 6.942540810969751 0 0 0
223 1 1.459705212113817 2.501845209586171 4.537103918941352 0 0 0
224 1 1.456177317547815 4.262026244419912 6.719215735761945 0 0 0
423 1 4.462623915019835 2.58496949107447 4.563176108874213 0 0 0
424 1 4.467974437643023 4.162680163466604 6.8757777406793155 0 0 0
443 1 2.954455172825805 5.052979215306479 4.512198055980565 0 0 0
404 1 5.8903415670910695 1.727713614689067 6.924860354860468 0 0 0
604 1 8.961529805433917 1.6962766514737175 6.809602947687303 0 0 0
623 1 7.209559442366777 2.4884565001600136 4.513727839891247 0 0 0
624 1 7.306231673829431 4.2789186579156695 6.716226535462506 0 0 0
643 1 5.7165563458433555 5.082942591565025 4.498022333374205 0 0 0
843 1 8.769194004910803 5.030522583628887 4.641855352020644 0 0 0
804 1 11.919396801189867 1.757383939040501 6.912240823527243 0 0 0
823 1 10.307165722714155 2.6376890726663302 4.660393540645876 0 0 0
824 1 10.28960449468258 4.242162441614337 6.907200180595348 0 0 0
1023 1 13.310329766434085 2.6112636550625252 4.481383575841389 0 0 0
1024 1 13.157501864732364 4.328960703095431 6.937058100738354 0 0 0
1004 1 14.761052981381107 1.7120793089404314 6.8397709554680475 0 0 0
1043 1 11.795233723225337 5.073672967031567 4.4099233646406715 0 0 0
1243 1 14.72590793039464 5.140758596723111 4.633933920634666 0 0 0
1204 1 17.655987218652736 1.5443398448467962 6.916654581280854 0 0 0
1223 1 16.333808211867765 2.5937020334341354 4.593167293217708 0 0 0
1224 1 16.1765274906184 4.140708738899435 6.900337524877368 0 0 0
1423 1 19.18469864545304 2.529514203718706 4.6594966120443395 0 0 0
1424 1 19.14940185714676 4.300091795853542 6.951392049930671 0 0 0
1443 1 17.595419634779486 5.085271704733532 4.583691318156529 0 0 0
1404 1 20.772381996258545 1.5967507711153566 7.027923033544154 0 0 0
1604 1 23.511601233901896 1.7178053409914034 7.0955703584349505 0 0 0
1623 1 22.01656864789918 2.5417194397254876 4.646340121321659 0 0 0
1624 1 22.217969643017064 4.2718391181880015 7.0670687494599145 0 0 0
1643 1 20.67116516789024 5.024591224682468 4.7212304496086075 0 0 0
1843 1 23.661588643718893 5.193799416240204 4.560998057559715 0 0 0
23 1 27.951268001864726 2.6628539939309306 4.647638294835735 -1 0 0
1804 1 26.466761369668724 1.6936569766715883 6.856675971507691 0 0 0
1823 1 24.871976036672162 2.584607853024328 4.66697029523013 0 0 0
1824 1 25.043980422970453 4.322067703634118 6.883807376769763 0 0 0
43 1 26.531458148772764 5.051554587216217 4.488256602484107 -1 0 0
44 1 -2.8820808439449213 6.898625110514837 6.785607974235009 0 0 0
64 1 -4.284323988879286 9.478859975925948 6.828593928411891 0 0 0
263 1 -1.3698770616659584 7.65251623969603 4.425756587215859 0 0 0
264 1 -1.3479312183067256 9.345108715816808 7.029955572968542 0 0 0
244 1 -0.10167269597056805 6.8307667466037305 7.039077054301866 0 0 0
283 1 -2.795935337988484 10.37616552273426 4.695166899543649 0 0 0
483 1 0.014181202043711249 10.112160619863266 4.646366158821385 0 0 0
444 1 2.921474609908947 6.816531993743343 6.9589238769353585 0 0 0
463 1 1.5878062210528574 7.635574115909928 4.6743488088260055 0 0 0
464 1 1.467503073902149 9.271609680139704 6.8658027047300605 0 0 0
663 1 4.521295258029786 7.644524331553526 4.622359810221318 0 0 0
664 1 4.452553692808174 9.5549054273593 6.745044447148224 0 0 0
683 1 2.972387426463415 10.209720931925451 4.307405041752351 0 0 0
644 1 5.8204001258208855 6.857830056200665 6.912481089208593 0 0 0
844 1 8.750280556333282 6.791735098757903 6.9783785296389205 0 0 0
863 1 7.399865630188476 7.514792769790582 4.407747548194217 0 0 0
864 1 7.237294796216631 9.351857869048539 6.753909337978998 0 0 0
883 1 5.93491013682796 10.168666639142307 4.556951996044464 0 0 0
1083 1 8.861479705858136 10.115714534131099 4.662387011199733 0 0 0
1044 1 11.772465029319257 6.821405251852464 6.881612767557241 0 0 0
1063 1 10.252987729858248 7.5718272549640755 4.663689580455177 0 0 0
1064 1 10.342063671967342 9.422032047073674 6.951716263743854 0 0 0
1263 1 13.45436522503811 7.588246278735093 4.687979972126886 0 0 0
1264 1 13.28875802017133 9.186286078424306 7.007949008770623 0 0 0
1244 1 14.903361397518625 6.808612257657516 7.036773915407724 0 0 0
1283 1 11.811918670378684 10.203228841101737 4.6188449135755105 0 0 0
1444 1 17.837162859821692 6.876715580564686 6.916154142547008 0 0 0
1463 1 16.360836606208387 7.719527944726267 4.488489939591855 0 0 0
1464 1 16.16603346417958 9.39163908995475 6.947498716402016 0 0 0
1663 1 19.31401454945426 7.660493522684812 4.532771908793225 0 0 0
1664 1 19.152483131591854 9.400231138710575 6.793258037505502 0 0 0
1483 1 14.808991507058003 10.164508493997776 4.670067518340112 0 0 0
1683 1 17.621753605961548 10.301436075034498 4.528299230971381 0 0 0
1644 1 20.793904027738865 6.926312210743786 6.854188807496362 0 0 0
1844 1 23.660689913200894 6.856268212041576 6.942699031426089 0 0 0
1863 1 22.166508410481928 7.638874453704575 4.421891136661872 0 0 0
1864 1 22.1107341412163 9.38270347291283 6.8334142161837095 0 0 0
83 1 -5.741703616078155 10.276817190922552 4.687560208743827 0 0 0
1883 1 20.668523200588076 10.302859021237845 4.5203708716980495 0 0 0
63 1 -4.191197057197013 7.759340963292147 4.512192989635425 0 0 0
84 1 -5.840406669644298 11.93228482652609 6.926279826909895 0 0 0
104 1 -7.3252917327990525 14.464241251403728 6.907295510635782 0 0 0
323 1 -5.913969477510855 15.31933654989774 4.6669944691545835 0 0 0
284 1 -2.8569094965227686 11.99486909071062 7.026628238756463 0 0 0
303 1 -4.218443572972619 12.667506427718509 4.60112533730923 0 0 0
304 1 -4.271122774211408 14.461259311800045 6.740685365375867 0 0 0
503 1 -1.3772758325269345 12.753727470718985 4.5726259297626 0 0 0
504 1 -1.3977341323699104 14.570955352434693 6.956423149695841 0 0 0
484 1 -0.04264728035405696 11.829100342784301 6.949405938667597 0 0 0
523 1 -2.882747839346857 15.334151407689873 4.584614371734643 0 0 0
723 1 0.07625562321931316 15.264208299690575 4.606717856277514 0 0 0
684 1 2.869985700354686 11.937792641168505 6.84855364807951 0 0 0
703 1 1.4860049357870917 12.67756161946021 4.473435577274697 0 0 0
704 1 1.5948435453032745 14.342970879652436 6.965466306573446 0 0 0
903 1 4.4040837060858875 12.766288672265567 4.575133325683119 0 0 0
904 1 4.464187653755297 14.408641006551537 6.883185501172581 0 0 0
923 1 3.018209505086751 15.40495664158622 4.547411131284222 0 0 0
884 1 5.836909309453213 11.974245145975827 7.040273935611468 0 0 0
1084 1 8.752057946889813 11.918039978663169 6.998159484637931 0 0 0
1103 1 7.34159218830063 12.77985471537273 4.674979494219304 0 0 0
1104 1 7.436254741531809 14.604019688518441 6.900100994360466 0 0 0
1123 1 5.9832567870582904 15.29588338234223 4.663563480086646 0 0 0
1323 1 8.99391641815068 15.346896457768487 4.646462064116783 0 0 0
1284 1 11.8578819037492 11.875157550741527 7.000210663662771 0 0 0
1303 1 10.348090149000036 12.77377732492482 4.667762718539391 0 0 0
1304 1 10.250691197909692 14.423827258913 7.052620702473559 0 0 0
1503 1 13.306193808307633 12.671967160640753 4.535472067725788 0 0 0
1504 1 13.25295318292499 14.382599545370404 6.913407316178115 0 0 0
1523 1 11.85922474504966 15.291051542969871 4.5619490926053246 0 0 0
1484 1 14.799513320079704 11.930984375201872 7.024536413188243 0 0 0
1684 1 17.612147520860894 11.780634652281321 6.981341863927598 0 0 0
1703 1 16.234415277849152 12.864693057391662 4.545228699554567 0 0 0
1704 1 16.16818495320398 14.279464680546091 6.8646394495433105 0 0 0
1903 1 19.26131412508234 12.730458120577541 4.697974821111041 0 0 0
1904 1 19.097941139237275 14.402290088724618 6.917127872853871 0 0 0
1723 1 14.769588066806106 15.448936526722976 4.666060018612487 0 0 0
1923 1 17.727648725351603 15.3502417215315 4.54867326892431 0 0 0
103 1 -7.256551344734317 12.797545816942856 4.541463375847711 0 0 0
1884 1 20.63784171750635 11.870189249771052 6.827863665500134 0 0 0
123 1 -8.786097388364272 15.343370419398846 4.564246421852241 0 0 0
144 1 -10.317414994564961 19.627779274692724 6.819904369901275 0 0 0
124 1 -9.055863677674761 16.96810185818678 6.946774275820387 0 0 0
324 1 -6.072630344076237 17.00228661009692 6.868059057147495 0 0 0
343 1 -7.586169077279391 17.983478201117887 4.531346104729917 0 0 0
344 1 -7.39746046458447 19.55007523563157 7.055153570541262 0 0 0
363 1 -8.617893047548204 20.492039134752176 4.594611221290526 0 0 0
563 1 -5.897431184858109 20.427011212261814 4.618363337068645 0 0 0
524 1 -2.954498809534094 16.865112588787984 6.880788445623597 0 0 0
543 1 -4.518561373667413 17.949835467900098 4.639112621174783 0 0 0
544 1 -4.404818201050199 19.45292391564942 6.916565343969829 0 0 0
743 1 -1.4920096023405565 17.837773387364155 4.753361285026325 0 0 0
744 1 -1.365247557944783 19.494569976066977 7.016833559187534 0 0 0
763 1 -2.751578550535915 20.325199425153563 4.7241361162514846 0 0 0
724 1 0.18192390022401117 17.02141861075605 6.967486110063829 0 0 0
924 1 3.07983598688548 17.07615705946281 6.973383049061606 0 0 0
943 1 1.4992059691803652 17.810211264150038 4.5328432799673015 0 0 0
944 1 1.526469503235588 19.57038100973337 6.910068179921823 0 0 0
1143 1 4.366056172000394 17.948132916265543 4.557755327124495 0 0 0
1144 1 4.453164477205671 19.538458700364917 6.839920046111552 0 0 0
963 1 0.020004218138400743 20.34455693672476 4.649142993430772 0 0 0
1163 1 2.9043528632156237 20.509678795611723 4.620658076505354 0 0 0
1124 1 5.986724229527437 17.031650285880527 6.836591819921891 0 0 0
1324 1 8.838966491795242 17.07548539229487 6.838417272766575 0 0 0
1343 1 7.271485135102631 17.76626961944577 4.445060212532832 0 0 0
1344 1 7.248169870488227 19.424365156690506 6.964022197615986 0 0 0
1363 1 5.779607868962262 20.498769131791345 4.57082892691284 0 0 0
1563 1 8.782763247970962 20.349610320147583 4.5600480425681 0 0 0
1524 1 11.736721606859867 16.973540040610064 7.002028492841222 0 0 0
1543 1 10.426360519774187 17.90319749355596 4.410028764177873 0 0 0
1544 1 10.364339182623867 19.549898457797372 6.924896474030805 0 0 0
1743 1 13.22194536004608 17.832130355501306 4.5629683757002555 0 0 0
1744 1 13.147613588374833 19.61581532431289 6.937442192737082 0 0 0
1763 1 11.92703457597992 20.532870866282853 4.579954995976281 0 0 0
143 1 18.99649572828849 17.955028602630104 4.493602501505076 -1 0 0
1724 1 14.674218599001069 16.990790420574193 7.137459652489695 0 0 0
1924 1 17.61347895134124 17.007423529375952 6.972077196693558 0 0 0
1943 1 16.245915015179264 17.9634899368165 4.633926792420394 0 0 0
1944 1 16.118033535153078 19.614201455776918 6.876948270026051 0 0 0
163 1 -11.84034328227707 20.73165147377228 4.516756621796961 0 0 0
1963 1 14.788415866387082 20.434663263961312 4.51440555030643 0 0 0
203 1 -11.705324346022529 25.52878389626682 4.639316059404982 0 -1 0
164 1 -11.689499513393226 22.20468000291306 6.894962255736848 0 0 0
184 1 -13.204237055340812 24.58495267179518 6.94922704450188 0 0 0
383 1 -10.329058299200426 23.146137371646805 4.491543743995692 0 0 0
384 1 -10.169669464479558 24.601140292382663 6.981810157349184 0 0 0
403 1 -8.750074384457715 25.4971129325694 4.64238962210065 0 -1 0
603 1 -5.816616309775061 25.396285216399285 4.628869029404604 0 -1 0
364 1 -8.702968545225279 22.17014888484608 6.834902329484416 0 0 0
564 1 -5.706283803375911 22.142754121474137 6.9421085192443694 0 0 0
583 1 -7.233905132717282 23.052089055126785 4.637862300115971 0 0 0
584 1 -7.335204184117877 24.61484585880521 6.980886762833651 0 0 0
803 1 11.87882295779757 0.14025478982312592 4.353642702079724 0 0 0
764 1 -2.843252091957905 22.035657445512477 6.786370906494937 0 0 0
783 1 -4.3892846019265965 23.000412508228624 4.535615454073742 0 0 0
784 1 -4.370825100921237 24.832496282429055 6.912940914807974 0 0 0
983 1 -1.4507190189030057 23.086789966237056 4.504995863410059 0 0 0
984 1 -1.5734049463869644 24.787305329160127 6.890024033397038 0 0 0
1003 1 14.757042536467207 0.04152766945813601 4.5156914591011335 0 0 0
1203 1 3.065431379508005 25.481386528789262 4.693500818956337 0 -1 0
964 1 0.08319568613983375 22.207001301187248 7.001897233490474 0 0 0
1164 1 2.9934614463938916 22.17118438635408 6.919592713974007 0 0 0
1183 1 1.3741679546899936 22.935865733098264 4.509800898755701 0 0 0
1184 1 1.4588348398388034 24.66287367909858 6.833892026597809 0 0 0
1383 1 4.37280540441055 22.9180750396858 4.555448846663062 0 0 0
1384 1 4.577577148078476 24.682195667468953 6.988055315847835 0 0 0
1403 1 5.791095143075183 25.52353456020827 4.586326778500643 0 -1 0
1603 1 23.64453068338216 0.04025862369014478 4.531648545349735 0 0 0
1364 1 5.941189486540067 22.058653371678016 7.01883729744607 0 0 0
1564 1 8.806624018432078 21.99646433070899 6.765545168264514 0 0 0
1583 1 7.318554634809716 22.9490486011675 4.526842360839272 0 0 0
1584 1 7.368965697420907 24.695410014571312 6.799782723115929 0 0 0
1803 1 26.590891836121312 0.03455286170284235 4.449502401792091 0 0 0
1764 1 11.813393516521433 22.157176443083156 6.871334440873441 0 0 0
1783 1 10.329917803097711 22.961286149465256 4.557167440520681 0 0 0
1784 1 10.309882052116315 24.780697183863204 6.877069873756331 0 0 0
1983 1 13.244576281542615 22.93018999459229 4.619730075062627 0 0 0
1984 1 13.084685095916177 24.75360675660525 6.826875733003291 0 0 0
3 1 0.0022146552949127724 0.10402578141645977 4.642519505733679 0 0 0
183 1 16.01065168284166 23.08903335151958 4.5784518098858955 -1 0 0
1964 1 14.707197776183788 22.159513815526417 6.953647520604626 0 0 0
26 1 -1.5519206946099073 4.298795184663738 11.690101964737499 0 0 0
6 1 -0.0009579569590283249 1.7776317854046109 11.48093656478862 0 0 0
245 1 -0.08370582144959865 5.053307655081824 9.247800674263141 0 0 0
206 1 3.0074930458377764 1.6783034961781707 11.561863655744302 0 0 0
225 1 1.464238807331459 2.625944649271853 9.164165731849874 0 0 0
226 1 1.4310645232573784 4.341843784803953 11.517238099102357 0 0 0
425 1 4.299958756864659 2.5022277615305653 9.180980752724563 0 0 0
426 1 4.501825034626104 4.349302815848408 11.490822980126275 0 0 0
445 1 2.882733537775452 5.16121769684674 9.143209539923207 0 0 0
406 1 6.003693690041643 1.8658144015989313 11.661964443446717 0 0 0
606 1 8.968595147133309 1.9339472827854758 11.652279647679922 0 0 0
625 1 7.40654173825006 2.544042148152605 9.23154237589256 0 0 0
626 1 7.388254542031477 4.3916517042389405 11.635756979003533 0 0 0
645 1 5.8102571610563745 5.109562984926672 9.074341741456502 0 0 0
845 1 8.850849353413292 5.1058256929688675 9.225067436076712 0 0 0
806 1 11.901467085530413 1.6868086871698147 11.55071153428327 0 0 0
825 1 10.329448167965158 2.461507045578002 9.19912365915606 0 0 0
826 1 10.442295872136544 4.379506278117836 11.531250811479357 0 0 0
1025 1 13.352966616714365 2.649588745893969 9.294212039974456 0 0 0
1026 1 13.27660264108427 4.1689826360071125 11.625393012622444 0 0 0
1006 1 14.73066950782921 1.6682250019085825 11.694163039595972 0 0 0
1045 1 11.811413599050283 5.132520096196515 9.221833625637554 0 0 0
1245 1 14.728038672711445 5.2033834870173035 9.30252507833634 0 0 0
1206 1 17.770358653751945 1.633915302071635 11.698929526897793 0 0 0
1225 1 16.24353676159561 2.531464188017547 9.302797393361836 0 0 0
1226 1 16.250373095611433 4.0762846207948495 11.730846153473022 0 0 0
1425 1 19.18532198536761 2.5218369083093717 9.266300299392736 0 0 0
1426 1 19.23963275260132 4.323904992468347 11.649914356165766 0 0 0
1445 1 17.71736568417692 5.070641784652687 9.307594516879885 0 0 0
1406 1 20.641178554215955 1.5651311823039793 11.692939086745888 0 0 0
1606 1 23.53502420476786 1.7183828042219418 11.747770778305558 0 0 0
1625 1 22.147021174622722 2.5761053027024876 9.440062152401667 0 0 0
1626 1 22.045381582049675 4.434139821684881 11.448188762300019 0 0 0
1645 1 20.64743451907683 5.158633170689169 9.227536960353573 0 0 0
1845 1 23.566875798257026 5.15885081289932 9.451949984766618 0 0 0
25 1 27.969610108934283 2.3814465973771894 9.306819269948848 -1 0 0
1806 1 26.552766445555896 1.6747138525779925 11.704982087218811 0 0 0
1825 1 25.001470731978745 2.4791602404199597 9.296651757849132 0 0 0
1826 1 24.97937778734394 4.2812988605357365 11.62110786838107 0 0 0
45 1 -2.920089827324643 5.196603779923183 9.224531711297384 0 0 0
46 1 -2.9598679072642695 6.808260539858832 11.695950211124288 0 0 0
66 1 -4.31249370435338 9.380679023638047 11.650561891991815 0 0 0
265 1 -1.5172985752617505 7.643328137020859 9.261009789416944 0 0 0
266 1 -1.4342518970114413 9.295387350146697 11.575570921439873 0 0 0
246 1 0.0672153471568372 6.773516853416597 11.520497587364439 0 0 0
285 1 -2.922354534237008 10.167354989065508 9.31203709398804 0 0 0
485 1 0.09485785264487051 10.167512579614591 9.326696613946881 0 0 0
446 1 3.0874818142119795 6.870991048205086 11.592056068895005 0 0 0
465 1 1.453913010475814 7.588437353849223 9.4031233952556 0 0 0
466 1 1.5532241736044599 9.342940686967426 11.674583669513567 0 0 0
665 1 4.357371612593505 7.794798712743877 9.180409783689592 0 0 0
666 1 4.423264712843548 9.383902118835119 11.575641456892019 0 0 0
685 1 2.898556632225128 10.099707465936195 9.184498465966154 0 0 0
646 1 5.96121703921788 6.868196675376022 11.492757850531786 0 0 0
846 1 8.91340739710659 6.7233199780772335 11.544894807397533 0 0 0
865 1 7.294865820469907 7.698976100284495 9.244682817682511 0 0 0
866 1 7.460506492716971 9.355959429376659 11.683088634349843 0 0 0
885 1 5.882927496163234 10.223438140635112 9.296703285923229 0 0 0
1085 1 8.832736046999422 10.091272832723547 9.230120578798724 0 0 0
1046 1 11.96793502405589 6.923964673275865 11.592147017550344 0 0 0
1065 1 10.444378754416135 7.626819162201289 9.22837828694933 0 0 0
1066 1 10.332274362248997 9.436196705286916 11.485600233531676 0 0 0
1265 1 13.397453154560239 7.6476587168537575 9.267088140138656 0 0 0
1266 1 13.232808625605259 9.351703421935087 11.600498094011485 0 0 0
1246 1 14.70439091629999 6.78552587219211 11.639970221299588 0 0 0
1285 1 11.873797704416372 10.17026926286755 9.227590695434227 0 0 0
1446 1 17.680142794900338 6.862790013112287 11.576278746303906 0 0 0
1465 1 16.304202949103157 7.633020733489602 9.363870149934437 0 0 0
1466 1 16.235023749627974 9.292460447143664 11.682889200049951 0 0 0
1665 1 19.215188789959594 7.655714198942537 9.279996064498391 0 0 0
1666 1 19.139839503512736 9.429667335203865 11.649773018605112 0 0 0
1485 1 14.88478357506184 10.35106045936071 9.445403044465428 0 0 0
1685 1 17.746180210107113 10.131858496158568 9.247544365575074 0 0 0
1646 1 20.730735972064387 6.795625555041341 11.69158246045446 0 0 0
1846 1 23.4973210248862 6.953151296383829 11.689601488066119 0 0 0
1865 1 22.13511830714462 7.648164229236101 9.284883566818989 0 0 0
1866 1 22.16888906310963 9.410880343979617 11.506645729133904 0 0 0
85 1 -5.810358401771351 10.196394300249882 9.14585108503237 0 0 0
1885 1 20.719426560982452 10.312793064438898 9.124277360841218 0 0 0
65 1 25.0378022143883 7.633048280740304 9.172434470819484 -1 0 0
86 1 -5.742812519422183 11.817107636392825 11.584978503266724 0 0 0
106 1 -7.213786584809429 14.403546432994009 11.665145359675106 0 0 0
325 1 -5.801100965507447 15.278490592827325 9.274570488923843 0 0 0
286 1 -2.907938675808305 11.915603677800034 11.500659525549477 0 0 0
305 1 -4.363727526718032 12.80345948711204 9.20356547657412 0 0 0
306 1 -4.3053664632558695 14.553900748763557 11.61973165493489 0 0 0
505 1 -1.3932155427686022 12.791370036758932 9.265510050364309 0 0 0
506 1 -1.3504088891226402 14.495680938106483 11.736759641434963 0 0 0
486 1 -0.08361513889312619 11.89498552340069 11.54781962154815 0 0 0
525 1 -2.8323109367235664 15.225903358884445 9.27090252546652 0 0 0
725 1 0.11526561419813414 15.218190780948836 9.314758229008946 0 0 0
686 1 3.0162728008969952 11.916556715121784 11.604837685442302 0 0 0
705 1 1.484966518823569 12.653193528912121 9.329645711326 0 0 0
706 1 1.4960885529804058 14.367822481464982 11.674486645021583 0 0 0
905 1 4.400535380244444 12.76070389696665 9.178507645060941 0 0 0
906 1 4.506170179269449 14.429034644514584 11.635481563589918 0 0 0
925 1 3.0674940132524404 15.36420474049053 9.182623883091937 0 0 0
886 1 5.8839922046738495 11.895121025660515 11.572182356485124 0 0 0
1086 1 8.915187182543514 11.908198311127169 11.457695806914725 0 0 0
1105 1 7.473896735235296 12.787328469020203 9.261685813723718 0 0 0
1106 1 7.38568088351058 14.441308818458776 11.581942007908546 0 0 0
1125 1 5.912632653818473 15.347249752868425 9.19406122627646 0 0 0
1325 1 8.851220188572599 15.399772316408265 9.250994001174938 0 0 0
1286 1 11.959281349733576 12.047984323726393 11.630499906392116 0 0 0
1305 1 10.375181056833437 12.713864473269862 9.366454977181048 0 0 0
1306 1 10.352567634331132 14.554721777489922 11.65712318822215 0 0 0
1505 1 13.202825337933174 12.81163144931559 9.308399297557374 0 0 0
1506 1 13.278190180609688 14.51360884090959 11.74416939890398 0 0 0
1525 1 11.79398485617488 15.261760248198483 9.324282554636095 0 0 0
1486 1 14.829574751446309 12.038806354437355 11.698624120012221 0 0 0
1686 1 17.68786313462294 11.802907721333304 11.668361629523083 0 0 0
1705 1 16.281842047457776 12.762631422217712 9.378162476311473 0 0 0
1706 1 16.260215572602625 14.634128627610705 11.52588230698132 0 0 0
1905 1 19.197634934776815 12.75815918151069 9.246905944581988 0 0 0
1906 1 19.248123389289244 14.388322505598888 11.429738397907478 0 0 0
1725 1 14.730686560287412 15.321698293957445 9.267117532737378 0 0 0
1925 1 17.569585601863032 15.219344230997862 9.289257320003994 0 0 0
105 1 22.075456282858507 12.646644169341123 9.175769831223084 -1 0 0
1886 1 20.704684923069983 11.924594665233354 11.48419204844507 0 0 0
125 1 -8.739238259129616 15.322235866582654 9.195588292918599 0 0 0
146 1 -10.331401446416061 19.573319057621283 11.713636787494462 0 0 0
126 1 -8.85345116672177 16.996259256727487 11.481229468873497 0 0 0
326 1 -5.82914887657719 16.88418030152571 11.769428368633747 0 0 0
345 1 -7.3816302851529345 17.818268585601306 9.331220070966182 0 0 0
346 1 -7.193260274540314 19.59360996331219 11.641613765293835 0 0 0
365 1 -8.848769519392023 20.37993085095116 9.21042753365274 0 0 0
565 1 -5.901859149325541 20.26607711546134 9.204824598087114 0 0 0
526 1 -2.88551361188136 17.164426929261463 11.568289918486775 0 0 0
545 1 -4.54880978577232 17.834643850737944 9.181822826649098 0 0 0
546 1 -4.31012939737654 19.512219294588956 11.598549736680546 0 0 0
745 1 -1.4459666190986544 17.65152588278951 9.205175175322031 0 0 0
746 1 -1.3310112221355714 19.58109659726162 11.606631382716134 0 0 0
765 1 -2.8759442402046287 20.38543023335773 9.157583744689164 0 0 0
726 1 0.058031003755116065 16.94045600764761 11.523098836443385 0 0 0
926 1 3.0301394278782605 16.891245746989625 11.65303840452539 0 0 0
945 1 1.5455398461343668 17.847065791301752 9.293513573310724 0 0 0
946 1 1.535248162191043 19.423123524177726 11.65130492199299 0 0 0
1145 1 4.565554241700972 17.937856051262585 9.243248709028657 0 0 0
1146 1 4.558866868407093 19.484832841982318 11.741449817132349 0 0 0
965 1 -0.001339993544786578 20.326984709724126 9.36671356241249 0 0 0
1165 1 2.966775961414887 20.484154133208705 9.225020612713939 0 0 0
1126 1 5.783710846548085 16.950789655248517 11.615165801229091 0 0 0
1326 1 8.886850197080049 17.008607852672178 11.7335102995417 0 0 0
1345 1 7.49490125073016 17.827478967005135 9.172071392633374 0 0 0
1346 1 7.527830061488523 19.536241160244955 11.717214419566128 0 0 0
1365 1 5.947558894506389 20.356465478793037 9.310966330093674 0 0 0
1565 1 8.91766911584459 20.443806278213028 9.235037313537081 0 0 0
1526 1 11.824419211940436 17.057211593041743 11.726849741867378 0 0 0
1545 1 10.32236452358329 17.799192650825702 9.265197983922544 0 0 0
1546 1 10.46761928281428 19.636876136467748 11.50687179624272 0 0 0
1745 1 13.198790262299662 17.93154077986785 9.224872029422691 0 0 0
1746 1 13.489663452935334 19.537292928708577 11.679836852174935 0 0 0
1765 1 11.81910519368584 20.422082887229298 9.317245196910426 0 0 0
145 1 19.04210763520094 17.877457131841464 9.328908536423627 -1 0 0
1726 1 14.807787435053866 16.974575411754245 11.487871267765607 0 0 0
1926 1 17.674476301861414 17.088646975157257 11.59093597928611 0 0 0
1945 1 16.161106390561244 18.05649773599678 9.250299703456564 0 0 0
1946 1 16.43357928790006 19.554053573104245 11.812237560429262 0 0 0
165 1 -11.809706272212678 20.517986427176737 9.286705096527738 0 0 0
1965 1 14.732601756903033 20.48609558903675 9.422397365301833 0 0 0
205 1 -11.906973111258786 25.477526425952657 9.365037212561695 0 -1 0
166 1 -11.78268416468089 22.13770804978523 11.657444463175981 0 0 0
186 1 -13.16763664125434 24.778281597651976 11.575459097422716 0 0 0
385 1 -10.26044116979572 23.0583750004354 9.317737002596456 0 0 0
386 1 -10.18569815443874 24.69235244005285 11.595791187842368 0 0 0
405 1 5.903437378520842 0.10291763365949247 9.35461991680134 0 0 0
605 1 -5.811705229544159 25.389385894989896 9.169058208823817 0 -1 0
366 1 -8.669364794397108 22.309870848384325 11.684789952112617 0 0 0
566 1 -5.734701661461187 22.054767397296555 11.542363851596685 0 0 0
585 1 -7.328752017553956 22.84866902537708 9.323521975477428 0 0 0
586 1 -7.163027732859127 24.75269207072233 11.618149315590763 0 0 0
805 1 -2.9081570630377986 25.482906626757792 9.39301448858255 0 -1 0
766 1 -2.8834581262300767 22.044848386052365 11.575591473493429 0 0 0
785 1 -4.410685180007213 22.935905269366856 9.17158850546296 0 0 0
786 1 -4.233743937652668 24.69096153649699 11.671936753801317 0 0 0
985 1 -1.5427943123435712 22.924219515738464 9.270145671880059 0 0 0
986 1 -1.4211871096670228 24.633911825070008 11.72345810160918 0 0 0
1005 1 -0.00787537905572127 25.467996869139938 9.301471171729549 0 -1 0
1205 1 3.0550303211946033 25.49784237301992 9.283565471574711 0 -1 0
966 1 0.00042020901764163246 22.17342078166167 11.579903071892899 0 0 0
1166 1 2.9288560746177974 21.998454730699127 11.694039434947626 0 0 0
1185 1 1.5936419817158578 22.793494885662096 9.292267330141208 0 0 0
1186 1 1.5214597555546616 24.60193225503083 11.609728319139418 0 0 0
1385 1 4.410076535761886 22.861981851656502 9.251202047308654 0 0 0
1386 1 4.344690264339534 24.570789796047578 11.743729726306169 0 0 0
1405 1 5.810529017837658 25.51749517363375 9.326890683720052 0 -1 0
1605 1 23.41009133306165 0.055282542443178505 9.395191490208282 0 0 0
1366 1 5.834130545662563 22.11166657682427 11.569614409341204 0 0 0
1566 1 8.859986948806874 22.061395381951424 11.687095262726897 0 0 0
1585 1 7.431055989369939 22.88692722384416 9.358438187626163 0 0 0
1586 1 7.386197804243346 24.625668656373414 11.749586517679745 0 0 0
1805 1 11.689812801054012 25.413007457804696 9.28023054867622 0 -1 0
1766 1 12.004648327352504 22.245847077380468 11.545220914286709 0 0 0
1785 1 10.34328051975199 22.889116340335786 9.30427580701239 0 0 0
1786 1 10.224684285579624 24.657809610803618 11.708344789268034 0 0 0
1985 1 13.140202359765865 23.00153247661863 9.259080652635648 0 0 0
1986 1 13.25243863158533 24.70683815479523 11.678451739469908 0 0 0
5 1 14.703704917885293 25.464300520590417 9.330710837711724 -1 -1 0
185 1 16.124876197351337 22.9750093848928 9.197272368158895 -1 0 0
1966 1 14.767682767261865 22.184788077443134 11.650630079411329 0 0 0
28 1 -1.3578576391110875 4.225230841078203 16.450393218892657 0 0 0
8 1 -0.06079501256010974 1.6484262717280873 16.367766491547563 0 0 0
247 1 0.08024219516990591 5.1139826624366576 14.031041708157545 0 0 0
208 1 2.8723204580723305 1.7174410762279757 16.333278209073093 0 0 0
227 1 1.5317399418253395 2.758696876162366 14.062781832587874 0 0 0
228 1 1.6488250107118498 4.376126780082487 16.362637051163368 0 0 0
427 1 4.434223057450549 2.3749127554178115 13.915389313798645 0 0 0
428 1 4.437367205857678 4.271763535400416 16.275891090986697 0 0 0
447 1 3.0359554426372144 4.997409082627066 14.035929541490097 0 0 0
408 1 5.84464254443415 1.7829729656509157 16.378875266672935 0 0 0
608 1 8.977655323525871 1.7987747970615242 16.20108104046601 0 0 0
627 1 7.371026399251675 2.6858160786608143 14.036437993804725 0 0 0
628 1 7.3472518921373915 4.318738550618902 16.338967250755104 0 0 0
647 1 5.799358155729493 5.011685248397793 13.912595099369254 0 0 0
847 1 8.76043676944363 5.177111833769523 13.978285511706103 0 0 0
808 1 11.999713038154622 1.7612184392080543 16.38917522947531 0 0 0
827 1 10.312645082310059 2.631946343653827 13.95365893290776 0 0 0
828 1 10.2354093618404 4.226132230279001 16.26375817467511 0 0 0
1027 1 13.2037173106291 2.5005192201242137 13.960682151579821 0 0 0
1028 1 13.217074479213172 4.257148138343295 16.527157081247562 0 0 0
1008 1 14.748608756043456 1.748601166841307 16.455208936264683 0 0 0
1047 1 11.736970856577837 5.0875621971684035 13.979184994530243 0 0 0
1247 1 14.650409912043234 5.029132032742237 14.038356613303623 0 0 0
1208 1 17.66637878514682 1.7944869745004834 16.42809868725114 0 0 0
1227 1 16.19551217820307 2.5195947182820504 14.087964729761469 0 0 0
1228 1 16.114499719048847 4.263134169155254 16.375646855958383 0 0 0
1427 1 19.180027658371237 2.52116455938233 14.028273861073112 0 0 0
1428 1 19.14583895495876 4.35342978837541 16.516312021263733 0 0 0
1447 1 17.66089271632573 5.103182180088489 14.009290012356406 0 0 0
1408 1 20.652449902970066 1.7242831757387092 16.356222837777604 0 0 0
1608 1 23.451190044782333 1.6887740410493888 16.38954873146993 0 0 0
1627 1 22.08886276520031 2.6282159387712967 14.010551344130095 0 0 0
1628 1 22.063507870791646 4.263065303098721 16.464461014803852 0 0 0
1647 1 20.66370877272085 5.1171511667489895 14.090708292748666 0 0 0
1847 1 23.68356242609998 5.1648053438183545 14.01600664515687 0 0 0
27 1 27.991968170225586 2.596116074175385 14.07190281586206 -1 0 0
1808 1 26.411006849661263 1.644175608572331 16.43550959012265 0 0 0
1827 1 25.035949239103505 2.5418232442509954 13.910528158056112 0 0 0
1828 1 25.0187614242823 4.212089530333561 16.400707495914524 0 0 0
47 1 -2.881479685038229 5.064232623098807 14.047056334318171 0 0 0
48 1 -3.0981404802305694 6.696770243844769 16.37600061646346 0 0 0
68 1 -4.449777241691038 9.469749415502113 16.334114476886203 0 0 0
267 1 -1.3157813317046216 7.672844949101825 13.934693054710602 0 0 0
268 1 -1.4715726041345831 9.260211663386295 16.320731607099635 0 0 0
248 1 -0.1697377361058618 6.7605478668212 16.303417076263433 0 0 0
287 1 -2.8693319541500317 10.222808674207146 13.899499531207953 0 0 0
487 1 0.08380139961985675 10.248167228614161 14.015784721713285 0 0 0
448 1 2.8358991618111595 6.7860228435391585 16.34140939970687 0 0 0
467 1 1.634988214138523 7.605667194771461 13.992176153336642 0 0 0
468 1 1.3868747551657308 9.450516814923098 16.410837807748976 0 0 0
667 1 4.509676037654691 7.7071396935553285 14.144308014683375 0 0 0
668 1 4.42324560368357 9.348783980455448 16.43607907667912 0 0 0
687 1 3.059481754728894 10.245230574761164 14.108618563466322 0 0 0
648 1 5.839878928406799 6.794476677541516 16.495530881224884 0 0 0
848 1 8.814509718037966 6.777002415499651 16.354597390656206 0 0 0
867 1 7.251121795573958 7.645952113448944 14.02091211450059 0 0 0
868 1 7.343965842279997 9.343079008016867 16.29793933332302 0 0 0
887 1 5.790133813157349 10.28932527005472 13.8806872939558 0 0 0
1087 1 8.771655727151181 10.061140197113383 13.95275630163427 0 0 0
1048 1 11.753866035507812 6.8621275960860135 16.279671963446933 0 0 0
1067 1 10.289814302252395 7.532258515768712 13.814219056221582 0 0 0
1068 1 10.296882110086159 9.406043353044032 16.32362567884011 0 0 0
1267 1 13.224291064724088 7.818620702932256 14.027919868556905 0 0 0
1268 1 13.289912615271149 9.464283038728432 16.36623948844057 0 0 0
1248 1 14.663568227826797 6.8119137960100264 16.389579318695063 0 0 0
1287 1 11.646195334205661 10.121267279406855 13.907708613371035 0 0 0
1448 1 17.56217342909888 6.877198560339976 16.343893596072476 0 0 0
1467 1 16.079512363422303 7.594344945768397 13.989951756531635 0 0 0
1468 1 16.211348658216753 9.36652020713429 16.32297342406692 0 0 0
1667 1 19.126221203780908 7.726703700226204 13.969914405014837 0 0 0
1668 1 19.141164938043488 9.603220017784036 16.34013046334063 0 0 0
1487 1 14.687659437779601 10.144829486154062 13.950701800220626 0 0 0
1687 1 17.54354264409044 10.298687126779141 14.080398904938727 0 0 0
1648 1 20.588305694715118 6.800303641019829 16.345112760346453 0 0 0
1848 1 23.58896894087502 6.825356913444159 16.33958043796511 0 0 0
1867 1 22.06325621533845 7.874276416130096 13.96900486045256 0 0 0
1868 1 22.16840728130692 9.475716681505153 16.373486071571588 0 0 0
87 1 23.554066755659274 10.195699616807657 13.989184478479196 -1 0 0
1887 1 20.68433741761063 10.172447445366839 13.848207239268973 0 0 0
67 1 -4.355310753242922 7.723106271771885 13.881181962656758 0 0 0
88 1 -5.810762233631897 12.012587634209636 16.401283637687236 0 0 0
108 1 -7.36759753439051 14.49135660583089 16.33998352828907 0 0 0
327 1 -5.904141453379801 15.348779822599392 13.99585041917983 0 0 0
288 1 -2.8682711232642073 11.98600529136732 16.35813989874379 0 0 0
307 1 -4.412941015891448 12.751436861730422 14.005151161963477 0 0 0
308 1 -4.3776354893358205 14.555333383543957 16.306115885955546 0 0 0
507 1 -1.6153157783228245 12.81517388427501 14.002870259386082 0 0 0
508 1 -1.399314911275029 14.448793156648192 16.467637952063065 0 0 0
488 1 0.1565303000281973 11.911574835929187 16.331216472081074 0 0 0
527 1 -2.8682924540617916 15.33679902140902 13.91006917958962 0 0 0
727 1 0.08421813078779225 15.453059390554113 14.154083353141496 0 0 0
688 1 2.9473588513961 12.013533881181067 16.418322089020258 0 0 0
707 1 1.5070927303813237 12.855851594564 13.938080134428827 0 0 0
708 1 1.4485867217815713 14.472267702573216 16.438162677544845 0 0 0
907 1 4.422322502193585 12.82489039229581 13.982752282460888 0 0 0
908 1 4.483559762498663 14.470874849591356 16.451875691334067 0 0 0
927 1 3.003821417778377 15.259847918801121 14.030203664767514 0 0 0
888 1 5.891430478285188 12.001396591515938 16.26675672724976 0 0 0
1088 1 8.831294774995003 11.77969281922858 16.21172277512794 0 0 0
1107 1 7.417253019483616 12.670767687521954 14.036123418803719 0 0 0
1108 1 7.517336793011609 14.565518601008478 16.261495849451144 0 0 0
1127 1 5.952675095648499 15.199319146472396 14.039313128459204 0 0 0
1327 1 8.905332780209243 15.417864852581108 14.05624927752215 0 0 0
1288 1 11.692757505159543 11.964041501452572 16.211610741361298 0 0 0
1307 1 10.204111313533225 12.724449326908877 13.804678199325231 0 0 0
1308 1 10.307423493921076 14.434200124984349 16.384128692662546 0 0 0
1507 1 13.321656541186911 12.7731054710161 14.149815575012653 0 0 0
1508 1 13.213491338857562 14.604417854593889 16.252844406479728 0 0 0
1527 1 11.797437584339978 15.437255784577891 14.06647626988141 0 0 0
1488 1 14.700278731368002 11.85475254046048 16.320502906683487 0 0 0
1688 1 17.71077443145695 12.037827596040257 16.416804076716915 0 0 0
1707 1 16.25693826376676 12.810896899801442 13.979044715357107 0 0 0
1708 1 16.24304893730032 14.670240330553133 16.311396651178715 0 0 0
1907 1 19.23161203354287 12.81103859005536 14.096309547659533 0 0 0
1908 1 19.20178344763615 14.586496485165672 16.373984281807267 0 0 0
1727 1 14.715360111514112 15.531953672823885 13.931411935654605 0 0 0
1927 1 17.80302618026982 15.3259839644346 13.812808096773908 0 0 0
107 1 -7.3427200597323825 12.793453310826747 13.810181435563964 0 0 0
1888 1 20.766342667673673 12.003430777937975 16.342558014967473 0 0 0
127 1 20.648558624532217 15.310118968722387 13.950174181681142 -1 0 0
148 1 -10.21814866179675 19.542810284674466 16.441710653764645 0 0 0
128 1 -8.80323444117158 16.973295089302955 16.21991270254709 0 0 0
328 1 -5.910192086909506 17.185730283850127 16.251947550858624 0 0 0
347 1 -7.324542405287304 17.853730418155365 13.897033539605438 0 0 0
348 1 -7.37820974248913 19.598247110243864 16.26884272945109 0 0 0
367 1 -8.830353289142474 20.43304107048264 13.94436626028445 0 0 0
567 1 -5.862768461632306 20.312150814449794 14.06172692619943 0 0 0
528 1 -2.962807624266462 17.03362302919498 16.376406910068667 0 0 0
547 1 -4.304780317242069 17.915874887403373 13.965275193424286 0 0 0
548 1 -4.379388736388678 19.77460300515027 16.399611403666253 0 0 0
747 1 -1.4278243986567751 17.825224173042606 13.927064034044236 0 0 0
748 1 -1.3981088976780665 19.583341905188153 16.30661588235097 0 0 0
767 1 -2.7706880848507667 20.329276480826017 14.048340341761001 0 0 0
728 1 0.028179141759850965 17.03244934409152 16.376714908472348 0 0 0
928 1 2.86438567719939 17.046503282732093 16.425891681315925 0 0 0
947 1 1.548289920313212 17.822452518926355 13.841217725026063 0 0 0
948 1 1.424785674165583 19.452726498678448 16.1485313530555 0 0 0
1147 1 4.519922566040983 17.712060426936148 13.965761383446438 0 0 0
1148 1 4.448892618143757 19.462133422422973 16.235678723762803 0 0 0
967 1 0.04752303473299621 20.429347275696117 13.904225313615841 0 0 0
1167 1 2.8895588411793294 20.32749325948624 14.079440980567238 0 0 0
1128 1 5.890475295515783 17.003023848377822 16.40721732381412 0 0 0
1328 1 9.054192991891064 17.02095007192124 16.342120425319305 0 0 0
1347 1 7.264852984245175 17.9013750278761 14.163143456511829 0 0 0
1348 1 7.440929420683551 19.604373402017274 16.371108615539825 0 0 0
1367 1 6.02418885689833 20.429780936508113 14.03674315244662 0 0 0
1567 1 9.002745492838761 20.443785822645992 14.069207816204086 0 0 0
1528 1 11.814967044535125 17.041748483544676 16.444728111718913 0 0 0
1547 1 10.354580219742168 18.023772524279927 14.086807857928317 0 0 0
1548 1 10.392974368573864 19.809514195660373 16.329086678819735 0 0 0
1747 1 13.267848813424484 17.916134873531593 13.887474230567259 0 0 0
1748 1 13.272906735129064 19.65760409247753 16.18155960005011 0 0 0
1767 1 11.87343702615515 20.441267209408544 13.764067455720218 0 0 0
147 1 -10.221215148466236 17.83759689271624 13.960075754524501 0 0 0
1728 1 14.69807251773413 17.1302884076663 16.34540746311194 0 0 0
1928 1 17.82360582407163 17.083697890773973 16.325612739175437 0 0 0
1947 1 16.39409669622265 17.910637342660277 14.08556072529246 0 0 0
1948 1 16.254404987763362 19.723746093116628 16.45472670196511 0 0 0
167 1 -11.697098932642412 20.485674311048122 14.036046845593775 0 0 0
1967 1 14.89267065198066 20.429544430703434 13.972059911245275 0 0 0
207 1 2.908667632831899 0.023618349667772064 14.015763910868257 0 0 0
168 1 -11.838688481920805 22.07720968266577 16.2514746098612 0 0 0
188 1 -13.283984719436319 24.696675785703732 16.32891768374721 0 0 0
387 1 -10.291414675370557 23.103865871510738 13.88919108493714 0 0 0
388 1 -10.3288858480146 24.69422274500698 16.419714901690597 0 0 0
407 1 6.0331171851765335 0.051198634518222846 13.895788319644451 0 0 0
607 1 8.950763740090476 0.07966900620620032 14.014215571502456 0 0 0
368 1 -8.985776279655298 22.157461857907787 16.255992819168252 0 0 0
568 1 -5.893925660270106 22.263942853873974 16.284246200191834 0 0 0
587 1 -7.360269182355445 22.997866379563426 13.913783591771715 0 0 0
588 1 -7.316147755170424 24.576403703956554 16.24533360787173 0 0 0
807 1 11.786281491821997 0.08553104850672187 14.0373267968733 0 0 0
768 1 -2.8564488577350446 22.15603880739021 16.475844810565093 0 0 0
787 1 -4.354588041598903 22.99692389105841 13.917801157480634 0 0 0
788 1 -4.365723576737809 24.697559139181124 16.2463522181171 0 0 0
987 1 -1.5964304159328655 22.977881326569165 14.075870687772122 0 0 0
988 1 -1.3986200718270811 24.66794963309816 16.294441154859317 0 0 0
1007 1 0.05809259009853493 25.477124676650252 14.040397978844403 0 -1 0
1207 1 2.9117457666763147 25.49458740831273 14.068485353478792 0 -1 0
968 1 -0.11966847593251789 22.13420605310925 16.32268050437197 0 0 0
1168 1 2.9031759887295894 22.044680294847492 16.185491599061585 0 0 0
1187 1 1.3988205229360873 22.923780063658768 14.020086945269094 0 0 0
1188 1 1.5709141384628336 24.627133127830458 16.336692140815686 0 0 0
1387 1 4.411568338099538 22.903696078110865 14.007853922944172 0 0 0
1388 1 4.418593864106885 24.665901788147604 16.353038553443124 0 0 0
1407 1 5.831087930269516 25.496333197488745 13.97804670952672 0 -1 0
1607 1 23.570011701164127 0.04776839368787689 14.132205388713436 0 0 0
1368 1 5.773370230694075 22.092547078376544 16.182323410381112 0 0 0
1568 1 8.710969889202891 22.144277524678802 16.215395990979708 0 0 0
1587 1 7.465767793506562 22.905415282675268 13.962593262765836 0 0 0
1588 1 7.269956566725597 24.649974808876067 16.40395716871718 0 0 0
1807 1 11.822299006347246 25.522939526323334 14.104304689471727 0 -1 0
1768 1 11.611936841713534 22.14430020289455 16.188496528020785 0 0 0
1787 1 10.336147957298937 22.99036250091676 13.911162891021853 0 0 0
1788 1 10.210652400748799 24.634085856651424 16.23294923683426 0 0 0
1987 1 13.335719983537148 22.96143571341272 13.997448317574511 0 0 0
1988 1 13.310933582640796 24.698040558042297 16.422918700193662 0 0 0
7 1 0.1511640159395102 0.1663808663449432 13.821561459308494 0 0 0
187 1 16.1377206424328 23.090913571311095 14.047778026078158 -1 0 0
1968 1 14.610976815015507 22.193845863083432 16.350638273147606 0 0 0
30 1 -1.388346873455164 4.248402063546783 21.110394893821592 0 0 0
10 1 0.03948851198813392 1.6630940475640832 21.163125320484678 0 0 0
249 1 -0.002169773294536388 5.142208277571909 18.698253857623016 0 0 0
251 1 -0.027577712133395757 5.174513122915149 23.439113730134746 0 0 0
210 1 2.973582682799683 1.7614515270439606 21.051443858673537 0 0 0
229 1 1.4888427209314468 2.49138926186931 18.72198906124397 0 0 0
230 1 1.5081177783544364 4.199232505376316 21.085563893970896 0 0 0
429 1 4.2569443242268425 2.561418329271124 18.757125077031535 0 0 0
430 1 4.477405981841805 4.237371893703721 20.95445510588203 0 0 0
449 1 3.0374849647128523 5.1744005251181155 18.733180181639487 0 0 0
231 1 1.4654260047240415 2.5752137360123304 23.40801087352526 0 0 0
431 1 4.498188749138599 2.6602356167536514 23.39198338227601 0 0 0
451 1 3.0042188516827517 5.188149944217927 23.349960697840906 0 0 0
410 1 5.984466429783042 1.7160486777189794 20.99774444815551 0 0 0
610 1 8.862952015207089 1.6731124240053175 20.9656629049499 0 0 0
629 1 7.465427868282659 2.689787524501832 18.533556471466916 0 0 0
630 1 7.51919386451735 4.170417568416289 21.103714869416986 0 0 0
649 1 6.0372644169372265 5.012477233848319 18.71641800748515 0 0 0
849 1 8.990325498901603 5.117932884185822 18.64988899207599 0 0 0
631 1 7.319897411769993 2.5040092654777673 23.391228827662516 0 0 0
651 1 5.807111667653374 5.140750484681541 23.43701973743542 0 0 0
851 1 8.902664061076324 5.196509969672631 23.408436680055758 0 0 0
810 1 11.800202703811976 1.773584329760157 20.949067435062453 0 0 0
829 1 10.343946419017911 2.5913775618004085 18.610832446111072 0 0 0
830 1 10.418719051029523 4.286607918750079 20.953511308193047 0 0 0
1029 1 13.28762348054301 2.533360691870269 18.755600553590565 0 0 0
1030 1 13.331468103099517 4.247611911130065 21.074234968897436 0 0 0
1010 1 14.709319955612422 1.6610176639800875 21.11151893355571 0 0 0
1049 1 11.77647641519339 5.14107003170959 18.723931887264246 0 0 0
1249 1 14.780051427446548 5.178690364406462 18.828182337715457 0 0 0
831 1 10.251817263023632 2.609418005617573 23.317212797594923 0 0 0
1031 1 13.210425281397535 2.4534436409426585 23.325863171864082 0 0 0
1051 1 11.757079229296597 5.093362580682319 23.3320994238953 0 0 0
1251 1 14.659349101517446 5.139111437705721 23.47600785032848 0 0 0
1210 1 17.639507481595302 1.7662638214982984 20.944315502335105 0 0 0
1229 1 16.120789283974958 2.7269310698417986 18.715064803636547 0 0 0
1230 1 16.149630473498885 4.235043426823415 21.17516511955136 0 0 0
1429 1 19.1637586913338 2.453685399628177 18.74456753434309 0 0 0
1430 1 19.104596122970236 4.314527202865005 21.186453437390824 0 0 0
1449 1 17.699674932995922 5.211484734783769 18.770441129634595 0 0 0
1231 1 16.16458520909381 2.4386917110484694 23.576469495371278 0 0 0
1431 1 19.21711769774763 2.5343236586995976 23.440337866714696 0 0 0
1451 1 17.762378281819213 5.126878467456051 23.492764773679536 0 0 0
1410 1 20.6153636888286 1.5978575297066704 20.9661683024523 0 0 0
1610 1 23.46339343232989 1.6157570320292154 21.063494815858157 0 0 0
1629 1 21.948336806089156 2.689596077751718 18.827979437498616 0 0 0
1630 1 22.020736329130337 4.3975000619547915 20.92554915901989 0 0 0
1649 1 20.545216863068685 5.180442180526915 18.760655513563805 0 0 0
1849 1 23.46069950863772 5.221746087035888 18.70457616377476 0 0 0
1631 1 22.129637685480517 2.750259854715768 23.253352343922373 0 0 0
1651 1 20.673201262594954 5.122156307360071 23.35227519732776 0 0 0
1851 1 23.618023007856987 5.168415498647116 23.358681574666477 0 0 0
29 1 27.99676999067274 2.5345589321032187 18.91580121811032 -1 0 0
1810 1 26.4959038518622 1.7837857540824311 21.009525307142844 0 0 0
1829 1 24.79123837784897 2.6148881327395235 18.642525109018667 0 0 0
1830 1 25.05209880083517 4.31559177148773 21.174921223786452 0 0 0
49 1 26.358921214443278 5.016885537438055 18.759879606744942 -1 0 0
31 1 27.94399046411832 2.5008919640470038 23.369504138047603 -1 0 0
1831 1 24.97674443540325 2.436086128657735 23.251860281748943 0 0 0
51 1 -2.9236280988652363 5.192303659963144 23.372564011887388 0 0 0
50 1 -2.9065054187463857 6.780488287098898 21.13232631797012 0 0 0
70 1 -4.330934516930615 9.437241848292055 21.08821359496984 0 0 0
269 1 -1.4811656361702779 7.620744347208783 18.625351335255925 0 0 0
270 1 -1.3660740065597712 9.397339931763021 20.972090217126706 0 0 0
250 1 -0.10715292123068038 6.866839415548353 21.06510265184869 0 0 0
289 1 -2.896265660616252 10.200333299281853 18.639438253421275 0 0 0
489 1 0.058014827424092245 10.198673447959106 18.749639339149603 0 0 0
271 1 -1.4942478314554584 7.728726487455128 23.392478689267982 0 0 0
291 1 -2.8941096300180815 10.280689445337062 23.33477844593757 0 0 0
491 1 0.1550095087156245 10.253449303862428 23.389617475348995 0 0 0
450 1 2.989166941835392 6.873569710275039 21.128060405106385 0 0 0
469 1 1.4925011237617387 7.755775224171286 18.775817684870123 0 0 0
470 1 1.6837408484048875 9.459377491135049 21.076876428562304 0 0 0
669 1 4.548643570801567 7.729030626706556 18.834667630185663 0 0 0
670 1 4.498868432836597 9.444186021145875 21.12801967851783 0 0 0
689 1 2.9947483877227774 10.228605725314573 18.673219309772612 0 0 0
471 1 1.3393600300877417 7.76393491583234 23.372888602125066 0 0 0
671 1 4.2593592658547825 7.612908644064615 23.408760571698487 0 0 0
691 1 3.0036789924248146 10.282387662122225 23.557725965288743 0 0 0
650 1 5.9885334290817624 6.686791329341829 21.034624333862066 0 0 0
850 1 8.856585938003548 6.720409182937423 21.02216383749278 0 0 0
869 1 7.459806289157463 7.720027312730652 18.732397640963374 0 0 0
870 1 7.420175538963881 9.301847189565782 21.181317405461343 0 0 0
889 1 5.844990588355721 10.357638070406278 18.674647959019655 0 0 0
1089 1 8.805752498112959 10.1260848505131 18.713802214215455 0 0 0
871 1 7.345661318814978 7.606724748821374 23.380318275492534 0 0 0
891 1 5.852808566115804 10.30731515211732 23.490712199308984 0 0 0
1091 1 8.91355815769137 10.141504698279038 23.407121221140876 0 0 0
1050 1 11.88615354424578 6.8861738597747095 20.99069520205003 0 0 0
1069 1 10.34310813310449 7.802208315894218 18.751629102558113 0 0 0
1070 1 10.28179478393104 9.403410735155637 20.998861393074556 0 0 0
1269 1 13.304611147068771 7.702091596576179 18.66023887491044 0 0 0
1270 1 13.348594412608861 9.548870501588304 21.027018216548775 0 0 0
1250 1 14.890782685991729 6.775947873840121 21.07490800786212 0 0 0
1289 1 11.767363088564302 10.246076848685245 18.68877294444123 0 0 0
1071 1 10.308635199483634 7.698287146376041 23.33073494503419 0 0 0
1271 1 13.322273654401867 7.486941642149586 23.218399708497202 0 0 0
1291 1 11.835766516855188 10.234691392817135 23.33947278032447 0 0 0
1450 1 17.739126140579828 6.7622071592669935 21.127155476309007 0 0 0
1469 1 16.247112832402937 7.787823875838736 18.638512716830924 0 0 0
1470 1 16.2535725339482 9.335397450370241 21.0065959473922 0 0 0
1669 1 19.081745865411488 7.724036841753594 18.63171326062942 0 0 0
1670 1 19.045425601638478 9.442550173694563 21.00537183239322 0 0 0
1489 1 14.7693563442209 10.290990431286634 18.764665736778774 0 0 0
1689 1 17.69424098024798 10.22297945384875 18.641684510696862 0 0 0
1471 1 16.118851213351732 7.655627194810027 23.467591912164906 0 0 0
1671 1 19.111997967887955 7.799005409881168 23.41130296702113 0 0 0
1491 1 14.826926579747482 10.230035532088449 23.408723003583727 0 0 0
1691 1 17.760614387910127 10.260093931500606 23.547020180693117 0 0 0
1650 1 20.657429751300324 6.980416666642193 21.096457394264885 0 0 0
1850 1 23.648735326521983 7.012815446538122 20.957064854045 0 0 0
1869 1 22.081654120123257 7.765169257210385 18.642178134707642 0 0 0
1870 1 22.116954522444733 9.484444549641323 21.021476388032195 0 0 0
89 1 -5.859857570168388 10.271060560920455 18.74047644204197 0 0 0
1889 1 20.663149625681005 10.197915606276116 18.693564987290237 0 0 0
1871 1 22.074822441100824 7.846680818515206 23.37005493247575 0 0 0
91 1 -5.826392000102547 10.317223025978532 23.368729954821948 0 0 0
1891 1 20.679305833405124 10.355768187108268 23.59468801868892 0 0 0
69 1 25.052885716153895 7.668892660754548 18.612778357472173 -1 0 0
71 1 -4.417370454164472 7.832786104481213 23.295617414730206 0 0 0
90 1 -5.934209718253235 12.156952076959923 21.04099176076706 0 0 0
110 1 -7.24482118487046 14.480461945076879 20.87531079688441 0 0 0
329 1 -5.8003959641742755 15.405602334915427 18.67206774772661 0 0 0
331 1 -5.897846318995391 15.355609096521206 23.32939254067 0 0 0
290 1 -3.0179025240439525 11.893910104607 20.988721722944398 0 0 0
309 1 -4.4653514884429 12.864589697479067 18.64816421633353 0 0 0
310 1 -4.274226902021513 14.535143413115359 21.06846301101365 0 0 0
509 1 -1.4632453928809726 12.811709132349165 18.80120313244226 0 0 0
510 1 -1.4211203373820438 14.45560008565358 21.06903603460775 0 0 0
490 1 0.02398480957304589 12.010826833353256 21.187316288914662 0 0 0
529 1 -2.868918893720078 15.300127418381518 18.740216542390378 0 0 0
729 1 0.1363690111137762 15.323276122117623 18.621687517386995 0 0 0
311 1 -4.339505863202845 12.757851301558645 23.432760444669004 0 0 0
511 1 -1.4341908900097944 12.789526908155185 23.469719874861568 0 0 0
531 1 -2.807824818397011 15.345894475305647 23.390647956001065 0 0 0
731 1 0.041351712410074196 15.372315010900614 23.340323219429536 0 0 0
690 1 3.1626732284206045 11.992176300591915 21.098588140314437 0 0 0
709 1 1.451674268311453 12.755896991840366 18.909247908963376 0 0 0
710 1 1.4617297380228318 14.465730491909387 21.032878661466754 0 0 0
909 1 4.3187540243865135 12.776568228643747 18.793638045800193 0 0 0
910 1 4.55436368693144 14.566114864268862 20.990257238196637 0 0 0
929 1 3.085670951944635 15.366282961688828 18.8519067013321 0 0 0
711 1 1.5287549571427417 12.741528956379264 23.350453645568606 0 0 0
911 1 4.486571331808518 12.821666644691108 23.42985080600483 0 0 0
931 1 3.0484212651128284 15.32707302241554 23.31240346638129 0 0 0
890 1 6.080148839949141 11.94316843750478 20.94851388916258 0 0 0
1090 1 9.017391587396501 11.946377339961318 21.084898856517412 0 0 0
1109 1 7.453138768295178 12.870714574013018 18.512455270130758 0 0 0
1110 1 7.572321858903045 14.443794489192877 21.01762372359834 0 0 0
1129 1 6.062543775624153 15.314477635503229 18.564420282255018 0 0 0
1329 1 8.994284454840379 15.352518594937262 18.571344672405132 0 0 0
1111 1 7.411997461947691 12.612719949018572 23.330400374408224 0 0 0
1131 1 6.067658292074505 15.316622554971273 23.30100772535893 0 0 0
1331 1 8.849725207845216 15.301917048645208 23.446703145732844 0 0 0
1290 1 11.736508718799332 12.128977673441153 20.892882302906703 0 0 0
1309 1 10.343042715706572 12.705853511919731 18.60982364535956 0 0 0
1310 1 10.522980246041541 14.587837686381235 20.985648418165916 0 0 0
1509 1 13.24262207986282 13.000951038536074 18.591712694675486 0 0 0
1510 1 13.483767701887151 14.453863440504353 21.114381266947987 0 0 0
1529 1 11.790236770331443 15.473098244604433 18.743076848373114 0 0 0
1311 1 10.20625038410311 12.694962537364544 23.475345527497964 0 0 0
1511 1 13.225740382600964 12.719719392192403 23.429316100200456 0 0 0
1531 1 11.797226358751526 15.32302651094119 23.302806692967867 0 0 0
1490 1 14.694097766924546 11.90114634304017 20.930166589560777 0 0 0
1690 1 17.68324935042416 12.009694750007352 20.976980130595667 0 0 0
1709 1 16.25599267846609 12.844470585290892 18.67262590024468 0 0 0
1710 1 16.249897871714346 14.472751911908013 21.139536962467076 0 0 0
1909 1 19.272391358712795 12.7617725338775 18.73047596968957 0 0 0
1910 1 19.18793106418541 14.565559338762146 21.06032677817173 0 0 0
1729 1 14.722941199382193 15.281520609069469 18.782255990502666 0 0 0
1929 1 17.815834894887825 15.478072293379961 18.72320533831082 0 0 0
1711 1 16.092255283242636 12.761673990638121 23.432608195232792 0 0 0
1911 1 18.974605207258314 12.781415710116002 23.456030266650096 0 0 0
1731 1 14.758321104104049 15.395140678796134 23.365640858273068 0 0 0
1931 1 17.804527121498214 15.359448074189048 23.41286617355347 0 0 0
109 1 -7.29437676575095 12.719579832917598 18.598107952941483 0 0 0
1890 1 20.644703268385907 11.927461131081385 21.21015042735385 0 0 0
129 1 20.646753405004414 15.259456254966711 18.811722768761907 -1 0 0
111 1 -7.2586110270034245 12.960081075513482 23.409913671688507 0 0 0
131 1 -8.737020058687333 15.41657787577618 23.313993019840183 0 0 0
150 1 -10.235031568205294 19.519653927724132 21.092690449205346 0 0 0
130 1 -8.690697339803112 17.025244398020263 21.053313583209523 0 0 0
330 1 -5.8931195808787535 17.01895698543246 21.06615403294017 0 0 0
349 1 -7.284852712731229 17.94209422326335 18.686835707430372 0 0 0
350 1 -7.266740691950105 19.672090348761387 21.169187322222758 0 0 0
369 1 -8.998492208291093 20.355646511306812 18.776102971524374 0 0 0
569 1 -5.830255162811497 20.51434922109707 18.668880311003388 0 0 0
351 1 -7.354015289587236 18.007393662410216 23.48241119420636 0 0 0
371 1 -8.837508011263656 20.348081357552342 23.46797119781064 0 0 0
571 1 -5.828701501603844 20.5518552990328 23.327221272925623 0 0 0
530 1 -2.9177782325379993 17.134259898928036 21.096604783460283 0 0 0
549 1 -4.425981190019898 17.900973054078875 18.7259589754886 0 0 0
550 1 -4.425193405408963 19.480616423888293 20.967936772434612 0 0 0
749 1 -1.4377859353263716 17.852000046612517 18.758065572376747 0 0 0
750 1 -1.4239873990700898 19.658714292455816 21.09845276451803 0 0 0
769 1 -2.7629471782317734 20.517623321254206 18.732805974686276 0 0 0
551 1 -4.403829968208751 17.91503176132776 23.366598333949828 0 0 0
751 1 -1.4644905494253035 17.881012299922897 23.34763670776155 0 0 0
771 1 -2.908140818757787 20.54352397588896 23.328274635690732 0 0 0
730 1 0.06912496234305315 16.971499963850736 21.081814141162205 0 0 0
930 1 2.959110262917775 17.011509492066793 21.097877865689817 0 0 0
949 1 1.5416070761344927 17.88591930445082 18.741946094081733 0 0 0
950 1 1.4362853448353525 19.591441105731533 21.006177953905624 0 0 0
1149 1 4.613393118173418 17.85340714996602 18.68481668280837 0 0 0
1150 1 4.449077217267732 19.56416204541343 21.075298846586026 0 0 0
969 1 0.062342343089066936 20.359888976432735 18.639848399999206 0 0 0
1169 1 3.0218957138469658 20.290773872514187 18.47398081396836 0 0 0
951 1 1.4840299358509959 17.945824037113013 23.426065250208087 0 0 0
1151 1 4.5457274861349735 17.86988574076599 23.34563375899925 0 0 0
971 1 0.050659117713031346 20.44861884387232 23.48640137360719 0 0 0
1171 1 3.0985678398005407 20.456381599013596 23.478956539572955 0 0 0
1130 1 6.0193375559576925 17.07145471520701 21.01395132189924 0 0 0
1330 1 8.929360975128251 16.943343192234185 21.037455757544695 0 0 0
1349 1 7.466120514188923 17.960811304748837 18.584618326903193 0 0 0
1350 1 7.622682512636835 19.657131258672017 20.854471512719098 0 0 0
1369 1 5.923093957389543 20.512674184442236 18.627695301755015 0 0 0
1569 1 8.85429162795161 20.5471216150582 18.54858480060619 0 0 0
1351 1 7.4180128470029665 17.92659705506003 23.289432839620464 0 0 0
1371 1 5.94511009307635 20.409594031912988 23.326678612565814 0 0 0
1571 1 8.993602756803941 20.41660415755266 23.512031483499875 0 0 0
1530 1 11.901117781339194 17.117407185795553 21.072664599373905 0 0 0
1549 1 10.314927139587232 17.855393194465425 18.832315266523285 0 0 0
1550 1 10.34545536276059 19.628471288749466 21.070388793641136 0 0 0
1749 1 13.436114883603835 17.984222758199575 18.6485727315947 0 0 0
1750 1 13.388490446472806 19.621532627888627 21.03310054057217 0 0 0
1769 1 11.767901071907668 20.491637442552236 18.699271713924837 0 0 0
1551 1 10.302935370992072 17.912661635309828 23.338964335868496 0 0 0
1751 1 13.351653539983957 17.98408295591412 23.362649810333494 0 0 0
1771 1 11.956003850332888 20.45486528281538 23.33131290132481 0 0 0
149 1 -10.228157892541315 17.847553841036532 18.62623698245377 0 0 0
1730 1 14.708193143609453 17.068247608073104 20.98908833051384 0 0 0
1930 1 17.70745762552942 17.095792864915715 21.0337454353386 0 0 0
1949 1 16.20000207484787 17.82895050579192 18.72353421909359 0 0 0
1950 1 16.214465076403428 19.47558375528765 21.173581996522017 0 0 0
169 1 17.60935171911153 20.453433924952776 18.69340755765945 -1 0 0
1969 1 14.694366013503855 20.466416431071853 18.68149442088994 0 0 0
151 1 -10.293239507644397 17.960324675134377 23.36135904393058 0 0 0
1951 1 16.429535068913783 17.82055931347749 23.405561126700196 0 0 0
171 1 -11.71018948393903 20.367197242929638 23.364421697163145 0 0 0
1971 1 14.785452749181655 20.4240833044881 23.417728098291235 0 0 0
209 1 -11.815768617527771 25.494172697604284 18.79703002129563 0 -1 0
170 1 -11.929468610135045 22.15030441971716 21.016142507212145 0 0 0
190 1 -13.314561858406023 24.7363683721014 21.181470738057396 0 0 0
389 1 -10.37469588226146 22.905761092924912 18.655431905257508 0 0 0
390 1 -10.340075230368354 24.67216281653914 20.976169587844083 0 0 0
211 1 3.024185825386657 0.0349080107077947 23.38420785397492 0 0 0
391 1 -10.279644937486838 22.970553559471945 23.31613751972198 0 0 0
409 1 5.957734595606597 0.16909454952551944 18.68545445745355 0 0 0
609 1 -5.818567065217156 25.490576105692867 18.416320504866594 0 -1 0
370 1 -8.809942961561646 22.182083086975716 21.147800314667922 0 0 0
570 1 -5.853145406829201 22.13816256277947 21.056599900917433 0 0 0
589 1 -7.442280450800272 22.984204650033917 18.615250598441488 0 0 0
590 1 -7.391900076706704 24.56956336589847 20.99278462133919 0 0 0
411 1 -8.754050012718647 25.51203339097272 23.326249280708304 0 -1 0
611 1 -5.9974386668012265 25.477493252190193 23.287161453470937 0 -1 0
591 1 -7.331671838002007 22.920296794404646 23.422597605553403 0 0 0
809 1 11.768350201157455 0.024223367125348713 18.71884178750572 0 0 0
770 1 -2.933639375145687 22.329360609109756 20.98602652551924 0 0 0
789 1 -4.314569435877727 23.08290681578537 18.54669226248172 0 0 0
790 1 -4.53215232792185 24.674652499322647 20.92000143987935 0 0 0
989 1 -1.3251324852654622 22.964981714585946 18.795018586675777 0 0 0
990 1 -1.6061893385414376 24.730057023449834 20.985393636958854 0 0 0
811 1 11.644456624072722 0.02982672589319295 23.287132533125146 0 0 0
791 1 -4.306305095232613 23.07244603713987 23.40237992293004 0 0 0
991 1 -1.423762413495695 22.99194219124872 23.33532160449413 0 0 0
1009 1 14.869347758708392 0.0429838413795148 18.68894903247937 0 0 0
1209 1 2.867878032323611 25.40579787124493 18.713073974750653 0 -1 0
970 1 -0.01100279105892504 22.094300359073117 21.07500138818809 0 0 0
1170 1 2.913703544781684 22.096878318742892 21.01197664869553 0 0 0
1189 1 1.5489112346661564 22.902255538542008 18.64166024696522 0 0 0
1190 1 1.416127676640277 24.60578093908515 21.048642960594126 0 0 0
1389 1 4.383371785917792 22.827933345888685 18.788521250485182 0 0 0
1390 1 4.480262204764223 24.768355860210622 21.144155238022105 0 0 0
1011 1 14.59260112665418 0.039062153592190674 23.36704195723928 0 0 0
1211 1 17.693223976734757 0.037807104010262334 23.436570287681896 0 0 0
1191 1 1.5895820210596638 22.835971490032854 23.316013498323294 0 0 0
1391 1 4.270413933362828 23.135658229372964 23.326718391572914 0 0 0
1409 1 5.813822635314965 25.475940252190362 18.76024777331317 0 -1 0
1609 1 23.500561839552425 0.043894531558010735 18.70159333786595 0 0 0
1370 1 5.832560430313629 22.119557288694946 21.11259731783566 0 0 0
1570 1 8.914558269327827 22.119588353934887 21.00908618058479 0 0 0
1589 1 7.396771880288224 22.882351846345095 18.814944777179676 0 0 0
1590 1 7.411297221278799 24.79815960532707 20.94820453009041 0 0 0
1411 1 20.763680390658898 0.06286335493238955 23.397768639613627 0 0 0
1611 1 23.492144043865533 0.022346373910729703 23.443890970039398 0 0 0
1591 1 7.387711386864332 22.968513854696617 23.298933841474003 0 0 0
1809 1 26.486959160364766 0.08684859616723788 18.635396166665053 0 0 0
1770 1 11.772397424218056 22.034424761930637 20.88379830914092 0 0 0
1789 1 10.268312743287638 23.089589747441256 18.574026355768332 0 0 0
1790 1 10.380105267111487 24.604909653841393 21.033118622217216 0 0 0
1989 1 13.172558599009733 23.046094139509915 18.726898771618547 0 0 0
1990 1 13.27059747836359 24.669220848613598 21.035435086749356 0 0 0
1811 1 26.527232986224913 0.0688887452510253 23.422654543944034 0 0 0
1791 1 10.26340220838635 22.946041006302995 23.453532741096712 0 0 0
1991 1 13.267342561305405 23.102811375543048 23.38485359984194 0 0 0
9 1 0.06836147408941316 0.1254473267779916 18.83974016085923 0 0 0
189 1 16.024725262225903 22.90118847633994 18.62958610189907 -1 0 0
1970 1 14.678278218086984 22.086658914939978 21.125143043426846 0 0 0
11 1 14.673514528124505 25.4950394499188 23.416791551971432 -1 -1 0
191 1 -13.151319031928287 23.032477466398397 23.482276944881658 0 0 0
32 1 -1.5705318010611788 4.302192901073039 25.817779045942547 0 0 0
12 1 -0.05205394490227203 1.6811388028660774 25.70951665304908 0 0 0
212 1 2.8644472716125233 1.74864898290395 25.82810830213998 0 0 0
232 1 1.4905871166721814 4.2235596977288505 25.75832443743885 0 0 0
432 1 4.496141168311862 4.266064123018334 25.805504386872204 0 0 0
412 1 5.838249189400633 1.7592793424230042 25.663921244278665 0 0 0
612 1 8.754807876772182 1.751681739696083 25.678759583372617 0 0 0
632 1 7.358135859568536 4.276237477766783 25.72955757276517 0 0 0
812 1 11.717063085260618 1.7308149425757058 25.664179203054857 0 0 0
832 1 10.301584571800518 4.21971205135235 25.735400942460736 0 0 0
1032 1 13.294242239459592 4.1855298799282625 25.707973377266956 0 0 0
1012 1 14.655563678867088 1.78465003831273 25.69126640297139 0 0 0
1212 1 17.70609723475387 1.6567245860832052 25.87305433378248 0 0 0
1232 1 16.11802499733009 4.336595639974798 25.71917322792768 0 0 0
1432 1 19.078004716902946 4.250143196639587 25.834208261234323 0 0 0
1412 1 20.669269071673117 1.8894145385574148 25.773429757466506 0 0 0
1612 1 23.60261041506638 1.7408746151245575 25.634313307466975 0 0 0
1632 1 22.159554749331274 4.364847016643625 25.784897998379556 0 0 0
1812 1 26.50077303005997 1.7756146684792518 25.71912896209305 0 0 0
1832 1 24.96560389610115 4.249812646058795 25.682720759709365 0 0 0
52 1 -3.0236176400508117 6.862311959458059 25.801067229333846 0 0 0
72 1 -4.51868476333833 9.406712488930872 25.670308491742205 0 0 0
272 1 -1.5499031070866187 9.484178584878 25.711002764194838 0 0 0
252 1 -0.13523562147497606 6.8834970264063555 25.735811472728916 0 0 0
452 1 2.9732517905224483 6.883782920047381 25.771937341803483 0 0 0
472 1 1.4629031399265648 9.229542776608696 25.83127393948998 0 0 0
672 1 4.364336412515309 9.31912842034923 25.767645319325563 0 0 0
652 1 5.872456570298596 6.927336523699205 25.723268936617703 0 0 0
852 1 8.89035499492702 6.755118811676211 25.65658002844504 0 0 0
872 1 7.4077331764633705 9.390152179343486 25.754112442834202 0 0 0
1052 1 11.810697734988647 6.821751928354249 25.78571518492247 0 0 0
1072 1 10.481472016155955 9.34334606779747 25.69053369554461 0 0 0
1272 1 13.382737284105202 9.344429600849452 25.681332256613597 0 0 0
1252 1 14.669972473170024 6.785339352495753 25.720481642839207 0 0 0
1452 1 17.6110917293451 6.819745815771323 25.81286287765458 0 0 0
1472 1 16.241861066980366 9.340210200131404 25.855768013483594 0 0 0
1672 1 19.216395952826165 9.346758976146818 25.798063992493894 0 0 0
1652 1 20.685373098980566 6.764731972501547 25.727290425979874 0 0 0
1852 1 23.52788489853625 6.863044046563345 25.61947064970358 0 0 0
1872 1 22.0358460786526 9.340230966681231 25.892058133640976 0 0 0
92 1 -6.026543441983288 11.8877725797267 25.796110311765418 0 0 0
112 1 -7.303808419999849 14.492342498189773 25.68709868772485 0 0 0
292 1 -2.9044238275761396 11.905826623737534 25.83523370725577 0 0 0
312 1 -4.247705495180146 14.427824141068934 25.79669633107402 0 0 0
512 1 -1.3235269621441241 14.407604461699972 25.724287694138095 0 0 0
492 1 0.1257216975317311 11.971137935555502 25.858695015274247 0 0 0
692 1 2.958574427354998 11.906911931403965 25.80586643068195 0 0 0
712 1 1.6097944296878821 14.589978880059835 25.7883552030765 0 0 0
912 1 4.489699832673306 14.507216524685713 25.776449997186774 0 0 0
892 1 5.890479335845275 11.933382410163079 25.950210677003437 0 0 0
1092 1 8.78272369286928 11.8359573595006 25.86668025565142 0 0 0
1112 1 7.334674047383849 14.387835068819028 25.81637621039428 0 0 0
1292 1 11.738604885703051 11.926149610655202 25.657485962877743 0 0 0
1312 1 10.24031902454181 14.458605940107454 25.703057710100854 0 0 0
1512 1 13.188160896480591 14.494668740430226 25.60487338771375 0 0 0
1492 1 14.756358624645475 11.861459036793441 25.63687352640839 0 0 0
1692 1 17.589365593343537 11.966472425958152 25.97546556333084 0 0 0
1712 1 16.20632953713375 14.418213474924375 25.71911007390405 0 0 0
1912 1 19.206483670054528 14.399712481354841 25.86258038734423 0 0 0
1892 1 20.62167729335234 11.904798824386695 25.703295651082897 0 0 0
152 1 -10.358701467875434 19.507755754188814 25.762750690525724 0 0 0
132 1 -8.862069450990692 17.058536972935297 25.778687859641423 0 0 0
332 1 -5.862755056512286 17.00313401229794 25.695417161657303 0 0 0
352 1 -7.252720891456704 19.501693581450617 25.81750530883894 0 0 0
532 1 -3.061900230140801 17.04337638971472 25.62256624142438 0 0 0
552 1 -4.450777603313457 19.705619979536046 25.67307373309619 0 0 0
752 1 -1.414946109278182 19.339160764295215 25.710162952489878 0 0 0
732 1 0.05564252498882246 16.93774084332253 25.675353239154433 0 0 0
932 1 2.8063273686104733 17.080954027044854 25.6826521786653 0 0 0
952 1 1.4949386643585973 19.611679988909657 25.743073317635414 0 0 0
1152 1 4.53406943619779 19.560787240966427 25.847229236222738 0 0 0
1132 1 5.85796374701715 17.012617472904115 25.77588734703459 0 0 0
1332 1 8.751503956161581 16.97703467998673 25.69899156430096 0 0 0
1352 1 7.355814343843345 19.593737457484227 25.70470544177412 0 0 0
1532 1 11.84853858150403 17.090945056520813 25.609849932381934 0 0 0
1552 1 10.202913422694396 19.412096956623362 25.86396767576566 0 0 0
1752 1 13.11879092853219 19.51607917186645 25.812389411889676 0 0 0
1732 1 14.827711028961566 17.061038486000744 25.68920938864184 0 0 0
1932 1 17.794261315137547 16.937134145314715 25.74343532406409 0 0 0
1952 1 16.25679398726842 19.45130985917265 25.745472433989008 0 0 0
172 1 -11.6392162634101 21.958274092475634 25.746841224262457 0 0 0
192 1 -13.084276958265015 24.63183249620836 25.759931028165276 0 0 0
392 1 -10.198200185892194 24.63825466189244 25.678846179736777 0 0 0
372 1 -8.860992855603754 22.12174171857141 25.72716378775399 0 0 0
572 1 -5.939615198536477 22.24547635040679 25.78345060157646 0 0 0
592 1 -7.4415416818323585 24.607094722740143 25.769537497729754 0 0 0
772 1 -3.051938374279871 22.160571370190915 25.790874391376544 0 0 0
792 1 -4.4764759491075345 24.729997192480507 25.614302206838683 0 0 0
992 1 -1.5217177586419077 24.73763202172386 25.77288906132095 0 0 0
972 1 -0.025538847193942976 21.963155955056195 25.756503413702788 0 0 0
1172 1 3.0497679812863883 22.128887605033352 25.892455388532003 0 0 0
1192 1 1.3852703654813676 24.54602548201392 25.713583201282503 0 0 0
1392 1 4.453104482675956 24.769464562217024 25.769438839416043 0 0 0
1372 1 6.007811430655401 22.179537703711397 25.675477095471454 0 0 0
1572 1 8.71320400925477 22.09430581794461 25.902094995309152 0 0 0
1592 1 7.28361889909011 24.879822765081165 25.776031753430928 0 0 0
1772 1 11.717524106669892 21.947126547383323 25.832482756977516 0 0 0
1792 1 10.366637893836044 24.617642695445813 25.846942460704366 0 0 0
1992 1 13.331546506756325 24.635264673091015 25.686345990195385 0 0 0
1972 1 14.787079377079893 22.050365913953925 25.618158249122327 0 0 0
34 1 -1.3758346014552887 4.25601873975533 30.36398303904209 0 0 0
14 1 -0.1920721457572424 1.5899878055162935 30.51947453148243 0 0 0
253 1 -0.04598149377311319 5.084285667097285 28.043509664101922 0 0 0
255 1 -0.161861453338689 5.117751066501007 32.871736373708956 0 0 0
214 1 2.7942231351676927 1.6857772901622796 30.454055565841664 0 0 0
233 1 1.348896494147614 2.5354494894280473 28.039553371437044 0 0 0
234 1 1.4789317970475604 4.1435471564297455 30.47276390804036 0 0 0
433 1 4.469587654566329 2.4236418503965513 28.143079033200348 0 0 0
434 1 4.378843437578482 4.0734610624430685 30.45824772536192 0 0 0
453 1 2.947145341126263 5.103050484898031 28.071136545892138 0 0 0
235 1 1.3327903792142564 2.6248433985181707 32.87064438691508 0 0 0
435 1 4.437161103256446 2.569696387219142 32.88820883818753 0 0 0
455 1 2.833792824768062 5.008386521402828 32.9755912579322 0 0 0
414 1 5.848741873786648 1.7444825241839232 30.54749899359076 0 0 0
614 1 8.899219286472423 1.7027581773568021 30.385849949656354 0 0 0
633 1 7.308255620298546 2.5771024224054058 27.979411922028785 0 0 0
634 1 7.448400019734931 4.167616388753517 30.40451438519566 0 0 0
653 1 5.847155716128711 5.062246625196446 28.168823467600095 0 0 0
853 1 8.668010930587602 5.089723250172891 28.038672542956355 0 0 0
635 1 7.466654239708704 2.48935995391023 32.79894668644855 0 0 0
655 1 6.012803809882961 5.09360501826246 32.76103002382847 0 0 0
855 1 8.804266811558332 5.113669705534583 32.92110714344746 0 0 0
814 1 11.884587000534205 1.8009634781993666 30.479656307957676 0 0 0
833 1 10.286725562587945 2.629517817239861 28.100579219886843 0 0 0
834 1 10.421451839185822 4.333800023645649 30.477552411414642 0 0 0
1033 1 13.185457696990696 2.6511253805239186 28.16388559696486 0 0 0
1034 1 13.240611252386252 4.334791476386932 30.5328134440713 0 0 0
1014 1 14.736821764518595 1.6796312849739377 30.48856739682318 0 0 0
1053 1 11.712165780913674 5.170540062445693 28.053988326057933 0 0 0
1253 1 14.492544174164193 5.25322425010438 28.23163913419465 0 0 0
835 1 10.295898428255947 2.5802329820835617 32.78582808571991 0 0 0
1035 1 13.381751616134265 2.71361987134831 32.8758419045257 0 0 0
1055 1 11.674130367077012 5.1409923400258934 32.95416012776204 0 0 0
1255 1 14.846210345743982 5.219624701250818 32.74607064039425 0 0 0
1214 1 17.68043783917029 1.811550187654674 30.395753124467266 0 0 0
1233 1 15.927753784021668 2.529692716018477 28.05807750890628 0 0 0
1234 1 16.12129942152536 4.20460208439674 30.40602486937373 0 0 0
1433 1 18.975942436273822 2.5457320235493928 28.173050887265298 0 0 0
1434 1 19.187966539357888 4.297349320423716 30.35465503799417 0 0 0
1453 1 17.563270427437626 5.173063916467788 28.123282975403264 0 0 0
1235 1 16.253816302979104 2.5614967798839414 32.73525866019306 0 0 0
1435 1 19.132142261649822 2.5353332517143508 32.64457753461218 0 0 0
1455 1 17.71307090864756 5.053130745689283 32.68991790084177 0 0 0
1414 1 20.698282793370026 1.6826517983816267 30.50200331425248 0 0 0
1614 1 23.562866423023944 1.730228764099854 30.568072835529218 0 0 0
1633 1 22.055105943549393 2.530401311661915 28.143224928381883 0 0 0
1634 1 22.30481111211815 4.349704975026554 30.520392548092175 0 0 0
1653 1 20.69082332591088 5.101916684620485 28.161082387764157 0 0 0
1853 1 23.5825123215697 5.248058929091461 28.02854867596332 0 0 0
1635 1 22.171373451467364 2.511577810524481 32.864516578577046 0 0 0
1655 1 20.7591694291374 4.917189943345125 32.88835267942141 0 0 0
1855 1 23.646865935787854 5.1401988021236 32.94540149194534 0 0 0
33 1 27.966297416903547 2.5634891955614885 27.968599960613012 -1 0 0
1814 1 26.551012955713503 1.7667491284628596 30.495397425674888 0 0 0
1833 1 25.03999124864481 2.5921032234395756 28.072540556806246 0 0 0
1834 1 25.180261764750043 4.253951855032451 30.462572761240697 0 0 0
53 1 26.43070046215824 5.177501684688467 28.02913064144207 -1 0 0
35 1 27.883136226122048 2.5253881886215437 32.73188353499779 -1 0 0
1835 1 25.112498279088655 2.6208772794443465 32.74126456558321 0 0 0
55 1 26.559118434114694 5.036886952577331 32.91063552248438 -1 0 0
54 1 -2.8894689610574034 6.654428198810263 30.531420427490225 0 0 0
74 1 -4.391268043638819 9.383481189363506 30.44312779648783 0 0 0
273 1 -1.4974227465203762 7.762351003297238 28.13726325540303 0 0 0
274 1 -1.3303811982202098 9.271720487618003 30.542924241597568 0 0 0
254 1 0.09407590031014279 6.668591516218238 30.5642491270581 0 0 0
293 1 -2.9106963895142886 10.397167624310667 28.082216184866684 0 0 0
493 1 0.034846741049584 10.233838488394536 28.12836589622686 0 0 0
275 1 -1.4827468313009369 7.652362553121398 32.9495980757131 0 0 0
295 1 -3.0169886506084893 10.191552395979564 32.79612636098988 0 0 0
495 1 -0.12429269807225402 10.155595304392108 32.882661566637076 0 0 0
454 1 2.983462838494464 6.704940646295258 30.49343269847521 0 0 0
473 1 1.5290089896690346 7.672024137713801 28.19872803319604 0 0 0
474 1 1.49258660411514 9.18714925319113 30.498840141119004 0 0 0
673 1 4.323829814510029 7.655968787281496 28.14631035508392 0 0 0
674 1 4.444782068658259 9.361040015092906 30.52933429134105 0 0 0
693 1 2.9819779803674384 10.122092451552644 28.14265245475 0 0 0
475 1 1.5179951450726221 7.624364759203501 32.929460983687015 0 0 0
675 1 4.409753498641704 7.607948011648524 32.7426041009003 0 0 0
695 1 2.936844970303323 10.182235334932628 32.77266259160705 0 0 0
654 1 5.871209069314924 6.6867544574858035 30.541627991403093 0 0 0
854 1 8.766447275931297 6.731543962502837 30.557574473389806 0 0 0
873 1 7.341167154486163 7.543794695718908 28.072176627776095 0 0 0
874 1 7.252865150515243 9.266110990140117 30.514314113754747 0 0 0
893 1 5.966971869526054 10.175593631171362 28.15235789543474 0 0 0
1093 1 8.833625038931245 10.049388736296253 28.035967714505492 0 0 0
875 1 7.3483297966381915 7.719109881857589 32.942474651485995 0 0 0
895 1 5.977707681543514 10.13625073663063 32.93779483672785 0 0 0
1095 1 8.841943398944661 10.210148774583363 32.615592100353126 0 0 0
1054 1 11.766910880249723 6.910655415549863 30.44455989674043 0 0 0
1073 1 10.267104002501851 7.680867865167328 28.084613987423467 0 0 0
1074 1 10.19732894445858 9.255643118298863 30.43307846317664 0 0 0
1273 1 13.233170463559002 7.707558167028189 28.2010347178028 0 0 0
1274 1 13.281894976323322 9.40618704992299 30.527339660473142 0 0 0
1254 1 14.755928251209387 6.89554601443495 30.557002777146334 0 0 0
1293 1 11.808293002327364 10.235997964888261 28.12081604984557 0 0 0
1075 1 10.363218996008607 7.661651372255123 32.908896958296204 0 0 0
1275 1 13.271504725366013 7.612191064639985 32.85145733652861 0 0 0
1295 1 11.762580740064442 10.18994184623089 32.804832260273415 0 0 0
1454 1 17.735655833526778 6.853888819159095 30.431656041526047 0 0 0
1473 1 16.12408637063847 7.706738068294933 28.16420569613479 0 0 0
1474 1 16.224427828763293 9.362085330598134 30.537694203974688 0 0 0
1673 1 19.145326449961914 7.61325459341398 28.24011068492428 0 0 0
1674 1 19.17436543374707 9.46659578602198 30.54726099920255 0 0 0
1493 1 14.756424362009078 10.153845132238464 28.14147529672827 0 0 0
1693 1 17.698237877827857 10.243831373165198 28.19529238591643 0 0 0
1475 1 16.260505297193266 7.706184937646453 32.816555986233396 0 0 0
1675 1 19.152653176616973 7.712703723684554 32.748031481058796 0 0 0
1495 1 14.83580797092827 10.26270476382828 32.945036141800756 0 0 0
1695 1 17.742155111939848 10.165433035106442 32.946189188980966 0 0 0
1654 1 20.76576187211656 6.7890770703474255 30.577167014208918 0 0 0
1854 1 23.797093697028775 6.881358667023445 30.502783617021652 0 0 0
1873 1 22.045722294752476 7.744963332890859 28.173876150977488 0 0 0
1874 1 21.984640730289005 9.368069489247626 30.402609727950356 0 0 0
93 1 23.522660874049794 10.301709548715415 28.134434500986746 -1 0 0
1893 1 20.53014941366421 10.416781841987099 28.044953744740052 0 0 0
1875 1 22.145608351363943 7.667650484404774 32.8851095529741 0 0 0
95 1 23.51919587447667 10.217921864358198 32.707346734995056 -1 0 0
1895 1 20.669727558292013 10.28824179017037 32.71715103944487 0 0 0
73 1 -4.428185775608366 7.768792798103227 28.10641021546358 0 0 0
75 1 24.968125686278945 7.63241264517569 32.88856150546591 -1 0 0
94 1 -5.7929281970169235 11.94954006668305 30.291901357378684 0 0 0
114 1 -7.335562536846394 14.493510037386267 30.480640690255484 0 0 0
333 1 -5.9524280451349885 15.313725271226529 28.08644135392143 0 0 0
335 1 -5.8424791781255845 15.329077595746666 32.8137518420293 0 0 0
294 1 -2.989722179608816 11.891653595417178 30.54842275932743 0 0 0
313 1 -4.344821281129731 12.883926034575095 28.0827609857 0 0 0
314 1 -4.330669924819892 14.477058205171765 30.39287827251091 0 0 0
513 1 -1.3515175118700864 12.727450463714257 28.214225275441493 0 0 0
514 1 -1.4172308649832293 14.490683144932252 30.37183106717831 0 0 0
494 1 0.07824177778651698 11.960573343903294 30.544563487838058 0 0 0
533 1 -2.777851021185085 15.410774977591963 27.96801652952136 0 0 0
733 1 0.070787269488681 15.387595633686505 28.165791004531137 0 0 0
315 1 -4.514687637233987 12.716004001525715 32.72036138166596 0 0 0
515 1 -1.4496277557363852 12.84892144095277 32.9010470354318 0 0 0
535 1 -3.012942844061593 15.36184168277478 32.70130207258132 0 0 0
735 1 -0.04871071675146172 15.338949494238635 32.74889105203017 0 0 0
694 1 2.981057549122366 11.849211734548028 30.41562210953632 0 0 0
713 1 1.4637601746517948 12.664972252081858 28.164132898981894 0 0 0
714 1 1.528347275079225 14.585046455514847 30.451721260927616 0 0 0
913 1 4.532051560722462 12.801308203902407 28.24609235385492 0 0 0
914 1 4.398263096541749 14.50335778281378 30.59516153300259 0 0 0
933 1 2.965692477422998 15.368227337950444 28.16938926130968 0 0 0
715 1 1.449890400574249 12.74795869441823 32.841188420006354 0 0 0
915 1 4.489710360881949 12.695092659247807 32.84045231575852 0 0 0
935 1 2.871103117887225 15.50592253566052 32.90623427097112 0 0 0
894 1 5.894743136871194 11.8034959557438 30.496581251741542 0 0 0
1094 1 8.837329881590785 11.786788427978452 30.37050868635835 0 0 0
1113 1 7.423440967036745 12.788699415555095 28.204868460355186 0 0 0
1114 1 7.3483701969555835 14.323512749970444 30.436586861944026 0 0 0
1133 1 5.967602110168034 15.263463774116703 28.13530987113073 0 0 0
1333 1 8.795378428843668 15.301251085285427 27.956512304532968 0 0 0
1115 1 7.342111246525651 12.71764901657146 32.835025070009955 0 0 0
1135 1 5.849008599325131 15.281207776737128 32.80507426099013 0 0 0
1335 1 8.845116304541992 15.271603287890672 32.62102851242551 0 0 0
1294 1 11.856016433603012 11.896152163511124 30.4390572494347 0 0 0
1313 1 10.370523465663073 12.665033226327377 28.156903957646016 0 0 0
1314 1 10.151372099127443 14.549482405061651 30.309255752034733 0 0 0
1513 1 13.248586337938171 12.788239276136409 27.95350376793699 0 0 0
1514 1 13.187015988646916 14.52445077014982 30.404175027075933 0 0 0
1533 1 11.700903504813517 15.402105259409932 28.05815506552992 0 0 0
1315 1 10.319677386727209 12.692931583782963 32.663141874593954 0 0 0
1515 1 13.270734149049341 12.765633744537299 32.80544421189984 0 0 0
1535 1 11.598025233376347 15.184548432534479 32.935490065015536 0 0 0
1494 1 14.78951139132532 11.957676074602512 30.42449993694738 0 0 0
1694 1 17.727164224318766 11.902440392417967 30.51642994676468 0 0 0
1713 1 16.066790548823136 12.796566459196018 28.10079269316597 0 0 0
1714 1 16.249735132974912 14.3336055914043 30.50154374439857 0 0 0
1913 1 19.035861270909425 12.882218859192085 28.23063590330524 0 0 0
1914 1 19.27088077530563 14.571878383882366 30.371663203094197 0 0 0
1733 1 14.640361841952156 15.342475418199342 28.152554017854992 0 0 0
1933 1 17.53877097596051 15.272461778827465 28.148860553341564 0 0 0
1715 1 16.322720289021273 12.60785769538508 32.8010089017448 0 0 0
1915 1 19.167404344094496 12.927493946467747 32.81850783462373 0 0 0
1735 1 14.711279254273652 15.119329883597814 32.82614683150782 0 0 0
1935 1 17.758809677691776 15.326657148375038 32.71653682608126 0 0 0
113 1 22.051599100300407 12.776518878114635 28.097497454994222 -1 0 0
1894 1 20.63186933474787 12.041463380294191 30.53656379701392 0 0 0
133 1 -8.739435721448555 15.23794610929843 28.04576382962517 0 0 0
115 1 22.096268673286946 12.715140655433352 32.77041419658029 -1 0 0
135 1 -8.706991864493123 15.365978171100023 32.74863214435815 0 0 0
154 1 -10.317252341923536 19.58623970943356 30.589208373245118 0 0 0
134 1 -8.746063253765145 17.060568283508427 30.331113068197883 0 0 0
334 1 -5.811603493218929 17.088961221173843 30.37833286382539 0 0 0
353 1 -7.244332255477061 17.86343745913469 28.120662089950436 0 0 0
354 1 -7.256776219066668 19.560477198081674 30.32896005647294 0 0 0
373 1 -8.991590218233696 20.433874887149535 28.13524090278669 0 0 0
573 1 -5.835791042475689 20.44771471837019 27.95217507764771 0 0 0
355 1 -7.324224466937382 17.92490252984546 32.800462100283916 0 0 0
375 1 -8.894461830125463 20.334369875068802 32.683942489251805 0 0 0
575 1 -5.856261096747816 20.584862200559083 32.60984612227047 0 0 0
534 1 -2.9374316548212525 17.114717426965044 30.402122815052675 0 0 0
553 1 -4.372763378034189 17.83213270839993 27.98869865672263 0 0 0
554 1 -4.41309085550005 19.772313913652344 30.274896539202523 0 0 0
753 1 -1.4111386619211805 17.838485725821357 27.98757522204806 0 0 0
754 1 -1.5067124469204993 19.556705879296697 30.378996543595044 0 0 0
773 1 -2.841844903825363 20.412789031357338 27.926880016810927 0 0 0
555 1 -4.401715623642819 17.868726850215438 32.739296389740424 0 0 0
755 1 -1.5511146368764595 17.737100956894377 32.79119390541855 0 0 0
775 1 -2.926060377656299 20.471787088228602 32.67596987370451 0 0 0
734 1 -0.005104990077823734 17.138264592792652 30.406113476750566 0 0 0
934 1 2.900051466658846 17.091254143584518 30.568842595437104 0 0 0
953 1 1.4779595778156673 17.871204610760618 28.03526680532143 0 0 0
954 1 1.5296594460801651 19.478178352262933 30.429715111295174 0 0 0
1153 1 4.373735380792384 17.92460033114465 28.189760354574652 0 0 0
1154 1 4.506413812290081 19.552979209224205 30.502576184010607 0 0 0
973 1 -0.09126294002942212 20.43334844827385 28.015626627348446 0 0 0
1173 1 2.8691930575439866 20.37023884855697 28.050299036249942 0 0 0
955 1 1.5171902869567349 18.033219149158207 32.89512407018502 0 0 0
1155 1 4.561184611815333 17.85022032227841 32.74947969748131 0 0 0
975 1 0.026370951978927526 20.39641940130361 32.712401588452444 0 0 0
1175 1 3.053001688207731 20.438782749778643 32.88405667844801 0 0 0
1134 1 5.891089707355967 16.980980876630067 30.406757320185086 0 0 0
1334 1 8.780829767089125 16.96676232540333 30.30762911126347 0 0 0
1353 1 7.382928051166257 17.952198560022822 28.031783151465913 0 0 0
1354 1 7.260097976678843 19.62742233600356 30.520432464037242 0 0 0
1373 1 5.964738335978424 20.567024304678093 28.031134190778864 0 0 0
1573 1 8.853902295932917 20.398325407730372 28.120366213800494 0 0 0
1355 1 7.426711035459929 17.74420768063759 32.68637371658132 0 0 0
1375 1 6.048288276522486 20.45324475015035 32.85114679435829 0 0 0
1575 1 8.801189456942952 20.551491415890364 32.698121339848456 0 0 0
1534 1 11.826076036227157 16.93604860415866 30.49445865858956 0 0 0
1553 1 10.339872123188748 17.7687137256004 28.071481570312258 0 0 0
1554 1 10.355910954398361 19.608584533532493 30.399685391576153 0 0 0
1753 1 13.185466327108884 17.833093861663723 28.080215437974985 0 0 0
1754 1 13.380165534043032 19.492762743182087 30.44085172777581 0 0 0
1773 1 11.696225093858375 20.40124909485555 28.1621475636663 0 0 0
1555 1 10.409239930276662 17.738944241881704 32.74078122132016 0 0 0
1755 1 13.38692245860477 17.810949842309945 32.82280993589646 0 0 0
1775 1 12.025041039402064 20.384534074412336 32.869120431723296 0 0 0
153 1 -10.17180636281705 17.776571488036794 28.17391530261386 0 0 0
1734 1 14.773550484826751 16.981277201119426 30.408745405680683 0 0 0
1934 1 17.765257491269324 16.89486939938644 30.38456313409382 0 0 0
1953 1 16.27825735627088 17.73583554816272 28.17433797341368 0 0 0
1954 1 16.372241834264543 19.422861401296846 30.443372881797885 0 0 0
173 1 -11.740629317275976 20.388920520506442 28.19455930287123 0 0 0
1973 1 14.700521125084155 20.380720374515118 28.065867624251716 0 0 0
155 1 19.242157271895593 17.742659023186604 32.76235318026408 -1 0 0
1955 1 16.183837076347242 17.679679595147107 32.925225636281475 0 0 0
175 1 17.553618583941084 20.3666794435947 32.84156618053778 -1 0 0
1975 1 14.818642713390723 20.41377589390836 32.87274778047981 0 0 0
213 1 2.93185743781387 0.016886711704751246 28.1615679735871 0 0 0
174 1 -11.742774025298198 22.14728789423735 30.608567773844317 0 0 0
194 1 -13.337483632426496 24.5585316386356 30.35840891797058 0 0 0
393 1 -10.37235579610233 23.10167864712595 28.097713083956513 0 0 0
394 1 -10.350571794861036 24.668801050765396 30.481156572468638 0 0 0
215 1 2.90526761523345 0.2315823040530737 32.70329700803173 0 0 0
395 1 -10.318782196787017 22.935744443256684 32.826342047609685 0 0 0
413 1 5.925848647063534 0.0443752243147501 28.036693063094685 0 0 0
613 1 -5.898622938032332 25.43454377163277 28.021632235563036 0 -1 0
374 1 -8.78223433458215 22.09236162134249 30.445109650533215 0 0 0
574 1 -6.037652270761224 22.170815171920957 30.407165269575053 0 0 0
593 1 -7.360384541581977 22.99346165200252 28.09166411036978 0 0 0
594 1 -7.403517453690512 24.757294552179367 30.371055591579317 0 0 0
415 1 5.84061879628629 0.1005950178954138 32.75185962588604 0 0 0
615 1 8.827064096230814 0.14584893805113355 32.79308165660909 0 0 0
595 1 -7.478003583064048 23.12038672551938 32.874444693269766 0 0 0
813 1 11.783222424713037 0.0571710632133473 28.151222800227025 0 0 0
774 1 -3.000144481184984 22.127884807924293 30.401053176425076 0 0 0
793 1 -4.433363064859821 23.055008551401123 28.11289448862608 0 0 0
794 1 -4.392237932756897 24.843627733677145 30.527202880569465 0 0 0
993 1 -1.4373998626867837 22.975740276416648 28.16699867792206 0 0 0
994 1 -1.4905253846707949 24.81727954026509 30.437921109296123 0 0 0
815 1 11.912946188581993 0.10603545135667426 32.89545122089956 0 0 0
795 1 -4.4516626847146945 23.045813523380314 32.67805233372131 0 0 0
995 1 -1.5147111550895913 23.0562857295191 32.76538430752549 0 0 0
1013 1 -0.12398948269511428 25.44680996036825 28.0840653092213 0 -1 0
1213 1 17.465425261721734 0.03592864961425371 28.132488992060427 0 0 0
974 1 0.13466249061019453 22.058560838330763 30.487533182186407 0 0 0
1174 1 3.0724468549015995 22.115064298760593 30.587980165011494 0 0 0
1193 1 1.461826451209619 23.111424932566212 28.095367518308674 0 0 0
1194 1 1.5190586241329471 24.674776485155242 30.433846105978507 0 0 0
1393 1 4.341455658077171 22.94825027108459 28.168376915238124 0 0 0
1394 1 4.334843464599098 24.622922310874404 30.537698843330602 0 0 0
1015 1 14.720755021775322 0.034346676453423354 32.7289905662942 0 0 0
1215 1 17.585486484307154 0.05375718542141164 32.7888186014197 0 0 0
1195 1 1.4329951516637178 22.895515204142086 32.865246737828194 0 0 0
1395 1 4.5415333092592345 22.97776822535007 32.79178542126647 0 0 0
1413 1 20.320103650475847 0.050088421024984724 28.130418872691138 0 0 0
1613 1 8.770559685810241 25.477714146713037 28.060604888031673 0 -1 0
1374 1 6.0589741112538835 22.16311956472988 30.519833450190216 0 0 0
1574 1 8.816752412276188 22.20018847950116 30.32920233426336 0 0 0
1593 1 7.375989267684499 22.92050270232357 28.0693818565516 0 0 0
1594 1 7.32730660833643 24.731575243377225 30.483338260800295 0 0 0
1415 1 5.7921025511309665 25.518426283987985 32.70835711233353 0 -1 0
1615 1 8.904936004781916 25.51467897596074 32.79178371038811 0 -1 0
1595 1 7.541397580361133 23.06515762953165 32.875112858249686 0 0 0
1813 1 26.491623424006054 0.1488613269733754 28.034451529517355 0 0 0
1774 1 11.807609485126662 22.07147597107523 30.347957133690645 0 0 0
1793 1 10.402290399208606 22.98152767628339 28.24969710868927 0 0 0
1794 1 10.40963335222682 24.723495659817008 30.414530487326147 0 0 0
1993 1 13.248511703797316 23.144924722892963 28.010410211135753 0 0 0
1994 1 13.237743749370875 24.668331588873965 30.44242818026545 0 0 0
1815 1 26.750675819779552 0.06487637562844091 32.753648379249995 0 0 0
1795 1 10.403967087606508 22.91785611364464 32.63751578838636 0 0 0
1995 1 13.236143753156385 22.926170884973306 32.817451958135074 0 0 0
13 1 14.539013944230062 25.466330843063012 27.9788951755077 -1 -1 0
193 1 16.257545469474223 22.765489774581017 27.997713271342644 -1 0 0
1974 1 14.615845103685679 22.04088353956938 30.37419785666181 0 0 0
15 1 29.40466918749466 0.023462709804247434 32.86490910309731 -1 0 0
195 1 -13.206227010029506 23.051896591294874 32.82511457731056 0 0 0
36 1 -1.5294262711938518 4.216329164750749 35.192543356963796 0 0 0
16 1 -0.04755497990818213 1.6751391130181272 35.24294456423309 0 0 0
216 1 2.6848770330486253 1.7640901566398828 35.24407561423874 0 0 0
236 1 1.4313815476931897 4.320001123612596 35.31753629546806 0 0 0
436 1 4.5220401656292 4.258499374213954 35.1664502458193 0 0 0
416 1 5.91822151413861 1.6093887964595526 35.186228125851436 0 0 0
616 1 8.742450848362532 1.5840830719673926 35.22252040282516 0 0 0
636 1 7.45541620369746 4.171140533616637 35.24871882020821 0 0 0
816 1 11.716877668091328 1.7158435660084528 35.18541814881393 0 0 0
836 1 10.298655620101764 4.265301768518551 35.1728050753455 0 0 0
1036 1 13.22150608438348 4.288896068209442 35.132491575353285 0 0 0
1016 1 14.735887259964995 1.7953844644934263 35.193490743482116 0 0 0
1216 1 17.68018629261339 1.7808559627800071 35.14963370793131 0 0 0
1236 1 16.171740095545772 4.345418484903734 35.12465287247809 0 0 0
1436 1 19.17297581974969 4.352802091164758 35.08825792560018 0 0 0
1416 1 20.546739170524397 1.6967075954027724 35.26647369012148 0 0 0
1616 1 23.47678611845401 1.6435204401070922 35.13312785433878 0 0 0
1636 1 22.109238176749443 4.293616067277996 35.18327685031716 0 0 0
1816 1 26.44713585221739 1.7400296801859856 35.21023554757888 0 0 0
1836 1 24.95612632367401 4.312598252842472 35.27834114307862 0 0 0
56 1 -2.955865817109113 6.817861506446109 35.35225559733074 0 0 0
76 1 -4.38299780509007 9.4131653124765 35.205915474842975 0 0 0
276 1 -1.417814493443932 9.377925942649465 35.191070158039466 0 0 0
256 1 -0.06095474457439486 6.75575314175552 35.22347062665997 0 0 0
456 1 2.9009934837711038 6.92711843313814 35.11439912546907 0 0 0
476 1 1.492729209629189 9.330935483710332 35.2885428488717 0 0 0
676 1 4.2788267522591665 9.402401954997488 35.17438972307489 0 0 0
656 1 5.847477730747032 6.779114899141344 35.23271162985467 0 0 0
856 1 8.76497662773024 6.967896240402388 35.18595963220702 0 0 0
876 1 7.405236405866555 9.435562036050051 35.221094022831906 0 0 0
1056 1 11.85961223242426 6.891793841098353 35.23125907064839 0 0 0
1076 1 10.285276441543743 9.384165164370815 35.08585240872025 0 0 0
1276 1 13.259785213424232 9.473021144887833 35.11186597076432 0 0 0
1256 1 14.726976223899598 6.952091860848449 35.24449028620077 0 0 0
1456 1 17.765845464339904 6.789288953823368 35.20720842123215 0 0 0
1476 1 16.226950339651374 9.316439357130015 35.354439933333595 0 0 0
1676 1 19.206012536803286 9.385116961193907 35.11112606182793 0 0 0
1656 1 20.496705044302924 6.923111753564232 35.13595958613559 0 0 0
1856 1 23.635522746700094 6.796767117364144 35.185682253684185 0 0 0
1876 1 22.155421233420064 9.369481570410885 35.064478157186656 0 0 0
96 1 -5.928947014363734 11.75336700154603 35.21187505339352 0 0 0
116 1 -7.3747664870240905 14.37093793094947 35.25408896620141 0 0 0
296 1 -2.8389560118939587 11.881902326369786 35.023321757082925 0 0 0
316 1 -4.508455687810703 14.458096914374206 35.01826295791658 0 0 0
516 1 -1.4724098984535383 14.576662606743099 35.28930061503691 0 0 0
496 1 0.035147172194429546 11.800169041566125 35.183593706032646 0 0 0
696 1 2.9571798246780068 11.825970179217997 35.03415951303514 0 0 0
716 1 1.497761647463834 14.442350245846248 34.96714586715006 0 0 0
916 1 4.43968246337163 14.483283706200622 35.09332465955739 0 0 0
896 1 5.885295752082876 11.850317425929994 35.30816559311804 0 0 0
1096 1 8.959465769023332 11.922535231361355 35.04527181401034 0 0 0
1116 1 7.539422397292926 14.42232327948433 35.109480616280344 0 0 0
1296 1 11.806076579631464 11.75387804412506 35.01611900232854 0 0 0
1316 1 10.411169899428195 14.394326297147533 35.239029483505405 0 0 0
1516 1 13.269920390025453 14.468967987210224 35.06097755213926 0 0 0
1496 1 14.878047152780793 11.933262846226851 35.16468156270578 0 0 0
1696 1 17.728095236776678 11.91820747669404 35.44032263197368 0 0 0
1716 1 16.181478784086917 14.562488884592996 35.04783497137328 0 0 0
1916 1 19.140338729536605 14.44044296895479 35.215128855540314 0 0 0
1896 1 20.574519825845282 11.929747588523071 35.087787950909345 0 0 0
156 1 -10.401537776129194 19.593579179295297 34.9733017311607 0 0 0
136 1 -8.694972158498306 17.0945313216682 35.206595309776766 0 0 0
336 1 -5.789262310041518 17.03244582730884 35.18155957325695 0 0 0
356 1 -7.435720310749571 19.69625779505419 35.060333102896905 0 0 0
536 1 -2.9175996493271876 17.11698082654683 35.17776293413061 0 0 0
556 1 -4.515477251586564 19.662149233169277 35.04411431406903 0 0 0
756 1 -1.4598678044388225 19.67063052141996 34.99546130506093 0 0 0
736 1 -0.03548677641886055 17.06706524624436 35.10977436026219 0 0 0
936 1 2.9551756799094218 16.976883145135588 35.14535590863182 0 0 0
956 1 1.5562264271140795 19.594435210552543 35.14300441600039 0 0 0
1156 1 4.689031052383653 19.53391559704529 35.14863467607437 0 0 0
1136 1 6.113149464169243 17.01295764239131 35.256899947151446 0 0 0
1336 1 8.932095672707412 17.110417525302132 35.14181666930176 0 0 0
1356 1 7.425473086377451 19.639004418926934 35.07583665317527 0 0 0
1536 1 11.70838379624926 17.064791914452165 35.05500946519176 0 0 0
1556 1 10.460834781407057 19.515690988651286 35.24870254536331 0 0 0
1756 1 13.226166926302744 19.602154291528738 35.258695882608386 0 0 0
1736 1 14.737595824209706 16.99408577854206 35.264049990889056 0 0 0
1936 1 17.703744115670478 16.98019437567503 35.34706040053207 0 0 0
1956 1 16.066540177778908 19.50040690745097 35.155604338062176 0 0 0
176 1 -11.86172755628587 22.062928116998457 35.18692421260648 0 0 0
196 1 -13.417210308880497 24.669778855139043 35.041734677299814 0 0 0
396 1 -10.439742627584987 24.70389685887423 35.1776539909745 0 0 0
376 1 -8.95301186700176 22.152787819992817 35.229435100803926 0 0 0
576 1 -5.957811216613355 22.186330722926183 35.1192389622349 0 0 0
596 1 -7.493977653730115 24.64133424331682 35.18736851406303 0 0 0
776 1 -3.0837210739364505 22.24231635786841 35.06117166897694 0 0 0
796 1 -4.445918814589872 24.633264892982627 35.1238677532376 0 0 0
996 1 -1.3442750318134424 24.62603389580189 35.146639232729136 0 0 0
976 1 0.0033900690564471307 22.008184244898192 35.11329304547935 0 0 0
1176 1 2.9989841517692994 22.040186686185503 35.00935386028319 0 0 0
1196 1 1.538742004267746 24.55645178690606 35.20592206808454 0 0 0
1396 1 4.5113771688792035 24.6403009268097 35.02015228973477 0 0 0
1376 1 6.059845959828518 22.129640131100288 35.253099901412924 0 0 0
1576 1 8.928372768002298 22.1037664226212 35.10622276094316 0 0 0
1596 1 7.443551492047721 24.747870102172687 35.09105109252959 0 0 0
1776 1 11.857653739182519 22.199142453383473 35.18416751757035 0 0 0
1796 1 10.263633404539373 24.64715274167729 34.98927561504568 0 0 0
1996 1 13.141567924528141 24.58963870989446 35.18821635959718 0 0 0
1976 1 14.69712008684513 22.055933210573386 35.16499672535061 0 0 0
38 1 -1.4632033388882604 4.259908952135754 39.924306618579976 0 0 0
18 1 0.031789933186348075 1.760390696503515 39.938576293847525 0 0 0
257 1 -0.07543421326910685 5.161884510370044 37.567149650866675 0 0 0
218 1 3.0437515367422496 1.7279180202634097 39.9438177889649 0 0 0
237 1 1.3650550237460022 2.6890174905759006 37.41506462682543 0 0 0
238 1 1.4229707273667591 4.2038333397515 39.83859916823859 0 0 0
437 1 4.326873700802899 2.477262262492278 37.46466875415448 0 0 0
438 1 4.523370336244533 4.164567135196455 39.91680782413047 0 0 0
457 1 2.937031652020514 5.14751472094177 37.602135844964636 0 0 0
418 1 5.787230053755553 1.6319111474997143 39.82491310655536 0 0 0
618 1 8.762968624663673 1.7763035779592273 39.99331706423935 0 0 0
637 1 7.280672377352671 2.543805722983775 37.67257879684273 0 0 0
638 1 7.352816334782606 4.278662734779206 39.93397756035637 0 0 0
657 1 5.908724125810169 5.045222691215764 37.45255628878467 0 0 0
857 1 8.891774601638296 5.113315139691381 37.52955937928788 0 0 0
818 1 11.784993862979084 1.861485478460428 39.83118154275254 0 0 0
837 1 10.09151121912663 2.6432267989921288 37.68895091698443 0 0 0
838 1 10.304863178105258 4.388703293610074 39.72154155579894 0 0 0
1037 1 13.388606874120144 2.5425358500784867 37.6071240408803 0 0 0
1038 1 13.312510863381078 4.289597787077411 39.88283557278888 0 0 0
1018 1 14.79739238472692 1.6449145385823047 39.84950457169201 0 0 0
1057 1 11.906717596332792 5.162610990626863 37.47875097457463 0 0 0
1257 1 14.741011808415251 5.117098111379423 37.44539889624798 0 0 0
1218 1 17.701963402085667 1.6985492719519717 39.89888889290803 0 0 0
1237 1 16.36707892918792 2.506869835980841 37.455914547262665 0 0 0
1238 1 16.36299375743062 4.1948202092879 39.94670106990706 0 0 0
1437 1 19.252476188354056 2.4590853194857325 37.63287207471364 0 0 0
1438 1 19.16736157954588 4.24577502014427 39.8488178005166 0 0 0
1457 1 17.73497720725783 5.130085035719743 37.40173047126203 0 0 0
1418 1 20.792192018535275 1.7258733077508903 39.98387157360983 0 0 0
1618 1 23.593782766218805 1.618932287451327 39.8690747221343 0 0 0
1637 1 22.11930257285704 2.5186654491343896 37.57476139526697 0 0 0
1638 1 22.181238644455373 4.284804650613956 39.890158941172324 0 0 0
1657 1 20.66208946511194 5.031870279213331 37.377721994922375 0 0 0
1857 1 23.581625614654623 5.105471536503387 37.66094037351878 0 0 0
37 1 27.902205879075954 2.5243412587764964 37.57618643736191 -1 0 0
1818 1 26.471229906619932 1.6533820613637378 39.78691421785088 0 0 0
1837 1 24.965565953895556 2.4152254192587166 37.4297580340082 0 0 0
1838 1 24.951266906234572 4.14386961414057 39.90650298313477 0 0 0
57 1 26.555081055764994 4.997229132948143 37.57300267027499 -1 0 0
58 1 -2.8304443810880993 6.748574740587345 39.9005302569634 0 0 0
78 1 -4.458307671774944 9.340951502126577 39.88565447100951 0 0 0
277 1 -1.4584181798010758 7.761084553829238 37.53623795306204 0 0 0
278 1 -1.5854958016157892 9.334642056111655 39.86492267772426 0 0 0
258 1 0.04105923117313596 6.801940532500575 39.883583870983436 0 0 0
297 1 -2.980859780689103 10.36315350714758 37.49300791281711 0 0 0
497 1 0.06758814850345105 10.309667859199273 37.577813051276415 0 0 0
458 1 3.0368377801273585 6.7586614864704195 39.846710413973106 0 0 0
477 1 1.3899882672046457 7.592339150407479 37.572393335810816 0 0 0
478 1 1.4128907527570398 9.232973218801545 39.97437862943448 0 0 0
677 1 4.321516796059597 7.617485465846122 37.52658919363242 0 0 0
678 1 4.388433029235317 9.363703795752686 39.93698235699284 0 0 0
697 1 2.9530300578795616 10.211455080187 37.67009573766151 0 0 0
658 1 5.838801246460399 6.948986899236481 39.775037943837454 0 0 0
858 1 8.97995544772084 6.90393553231916 39.881495809752955 0 0 0
877 1 7.4278359112719405 7.691027649007561 37.583636517543006 0 0 0
878 1 7.355279177242234 9.583515295083181 39.80031699992981 0 0 0
897 1 5.809735845280078 10.117071419808154 37.44475230557896 0 0 0
1097 1 8.77791985205013 10.262856689886455 37.576912109421684 0 0 0
1058 1 11.799981583531965 6.732613892944174 39.936966680143435 0 0 0
1077 1 10.342886359401286 7.661360418717726 37.59230636247492 0 0 0
1078 1 10.30831948895764 9.363596553774201 39.85340928212072 0 0 0
1277 1 13.102937873231102 7.7445254002328605 37.42617339338712 0 0 0
1278 1 13.149716912933288 9.424344001511866 39.982411188340826 0 0 0
1258 1 14.670570781656863 6.737015504850157 39.87731106075303 0 0 0
1297 1 11.679226207960658 10.203457417834002 37.427588858735085 0 0 0
1458 1 17.751007910302896 6.826382202554312 39.89337629737712 0 0 0
1477 1 16.176293748205918 7.669410516160874 37.599359344210775 0 0 0
1478 1 16.257125744914198 9.470016131971041 39.88842793320233 0 0 0
1677 1 19.203200153497722 7.666015448778199 37.6310030277322 0 0 0
1678 1 19.272148982045763 9.467706367085187 39.88014067047916 0 0 0
1497 1 14.677727920404129 10.331672662177175 37.508890385945975 0 0 0
1697 1 17.71025371752514 10.197656061867756 37.50488073993009 0 0 0
1658 1 20.700712771152585 6.805091398792016 39.91524454903931 0 0 0
1858 1 23.62467098271166 6.957481269067893 39.9913548818538 0 0 0
1877 1 22.080935313423932 7.652071630650061 37.516971113331635 0 0 0
1878 1 22.052332180938762 9.405989677191311 39.85603279325071 0 0 0
97 1 -5.831213131940752 10.17691251496064 37.634047295818185 0 0 0
1897 1 20.549232605550984 10.22538767966566 37.53633658886913 0 0 0
77 1 -4.385221710353331 7.713300104178781 37.444376813433685 0 0 0
98 1 -5.7905065014204276 11.843614567292727 39.99022726671846 0 0 0
118 1 -7.189993887355182 14.504861201659162 39.777575310199836 0 0 0
337 1 -5.884966065917958 15.373864447098322 37.53294077055726 0 0 0
298 1 -2.904609993918468 11.92103929867965 39.93113819921049 0 0 0
317 1 -4.456234474038675 12.756504950721814 37.556805634199264 0 0 0
318 1 -4.411279076708549 14.389113939875145 39.94013148019208 0 0 0
517 1 -1.4979768830657116 12.91257996595056 37.553142437339815 0 0 0
518 1 -1.235100252913984 14.475051663957416 39.80384792150791 0 0 0
498 1 0.05633785497050873 11.84298919114829 39.88936333363131 0 0 0
537 1 -3.094451105765276 15.354978443468976 37.519790333885155 0 0 0
737 1 -0.022014882499865635 15.389291973981704 37.60878692741251 0 0 0
698 1 2.8107767189876367 11.855442693995597 39.922228259555716 0 0 0
717 1 1.6034056656445452 12.946485496157338 37.37446821728966 0 0 0
718 1 1.7293562032156604 14.464474286156928 39.80971333747077 0 0 0
917 1 4.5571716888017715 12.51127662386642 37.55731854023611 0 0 0
918 1 4.549365520670129 14.357688816758618 39.75902736708547 0 0 0
937 1 3.0442571755313104 15.328540275924109 37.43449120092292 0 0 0
898 1 5.882934848670337 11.837245802004658 39.88730351291869 0 0 0
1098 1 8.883757896463157 11.911279074840447 39.88368594135498 0 0 0
1117 1 7.30451927446742 12.691084094359455 37.48655205412422 0 0 0
1118 1 7.401656943224998 14.368674949957745 39.87433559568025 0 0 0
1137 1 5.824526310287915 15.265085843746764 37.44529468709057 0 0 0
1337 1 8.860144441714509 15.392141915182432 37.620001050204515 0 0 0
1298 1 11.822994590606664 11.970834963368794 39.92745077133643 0 0 0
1317 1 10.30048054724067 12.774156251710014 37.63147549129231 0 0 0
1318 1 10.455397971511148 14.498539290046432 39.84718795764514 0 0 0
1517 1 13.215570330719856 12.641201014843823 37.33327166925098 0 0 0
1518 1 13.477675518760531 14.460707609865265 39.754714224004786 0 0 0
1537 1 11.885704566278582 15.153777861503073 37.434136497041116 0 0 0
1498 1 14.594995197217747 11.825073841957229 39.91013149751882 0 0 0
1698 1 17.712663514782935 12.092559816531384 39.961170881552384 0 0 0
1717 1 16.258100344875608 12.867323373326334 37.59050035814708 0 0 0
1718 1 16.32603866636526 14.474943424688522 40.04384812527931 0 0 0
1917 1 19.25967572520066 12.800809644220077 37.69252277359902 0 0 0
1918 1 19.172011344730905 14.531256809474417 40.039930536269765 0 0 0
1737 1 14.972291974864676 15.18664548826269 37.42404177876353 0 0 0
1937 1 17.76941980854656 15.174457596454126 37.631476724620285 0 0 0
117 1 -7.283704864520737 12.685259133798658 37.46137471867482 0 0 0
1898 1 20.720835218994413 12.107846507693441 39.93809795755774 0 0 0
137 1 20.593049515268593 15.254562209811548 37.480830619736444 -1 0 0
158 1 -10.451372530335686 19.616759963310955 39.989405209284826 0 0 0
138 1 -8.86255216394327 16.948235111693528 39.91105947768869 0 0 0
338 1 -5.907584807372892 17.035299918219028 39.80776963824081 0 0 0
357 1 -7.346472530076763 17.957378681617094 37.50139429798479 0 0 0
358 1 -7.345423962535209 19.5794903375851 39.9607797445646 0 0 0
377 1 -8.923674176681699 20.54459964822277 37.459860949698715 0 0 0
577 1 -5.975614880208599 20.532637834123978 37.46155037129054 0 0 0
538 1 -3.175091590320012 16.925133416604844 39.820705159588435 0 0 0
557 1 -4.424022227557539 18.10431318647928 37.4770663639684 0 0 0
558 1 -4.298045873645045 19.491308992568108 39.92083499157581 0 0 0
757 1 -1.5512602111725577 17.837303396624126 37.415394807713845 0 0 0
758 1 -1.5100635482949976 19.502689511780364 39.82261488010437 0 0 0
777 1 -2.9965971005939593 20.518377352122567 37.356470802082754 0 0 0
738 1 0.050774371086649984 17.069462958820036 39.87221663974444 0 0 0
938 1 3.066560829659443 17.152921887300277 39.72460026803096 0 0 0
957 1 1.465465875509043 17.914981869061037 37.407061505639156 0 0 0
958 1 1.4734245727705382 19.647998796973834 39.86003079854918 0 0 0
1157 1 4.625614464610331 17.880678391699202 37.374199262021456 0 0 0
1158 1 4.438792977813145 19.499871073309038 39.79602173968864 0 0 0
977 1 0.0075735129017146675 20.35629663013021 37.30305569689757 0 0 0
1177 1 2.9734730761603725 20.37738600131684 37.50507621657347 0 0 0
1138 1 5.918286819742599 16.96826032426349 39.89230096247264 0 0 0
1338 1 8.83238682018456 17.05012842358764 39.8642726150797 0 0 0
1357 1 7.427531826370139 17.847523432692153 37.532489097512546 0 0 0
1358 1 7.348802544403068 19.528899088917104 39.9397415181385 0 0 0
1377 1 5.978832821774153 20.53790516054321 37.5785411974352 0 0 0
1577 1 8.933243661490748 20.38053818583252 37.505932577048966 0 0 0
1538 1 11.650722755505434 17.076720048503972 39.8503310171285 0 0 0
1557 1 10.348500195958906 17.8317348794566 37.49629067838492 0 0 0
1558 1 10.23856269939726 19.513734696785175 39.9049946477559 0 0 0
1757 1 13.186438676824654 17.744296280301295 37.53238107009701 0 0 0
1758 1 13.18070638734676 19.675935277987048 39.84377170017039 0 0 0
1777 1 11.709740242402795 20.381081398334672 37.539760215461314 0 0 0
157 1 -10.239358789347873 17.93663956131509 37.622209343957955 0 0 0
1738 1 14.594311636422347 17.063315734453568 39.88310821061078 0 0 0
1938 1 17.714168708247417 17.04604477851783 40.066410054877736 0 0 0
1957 1 16.23372317640779 17.807294162817477 37.68025458034151 0 0 0
1958 1 16.192853461484894 19.651421818511906 39.93456284977632 0 0 0
177 1 17.6897881184856 20.3009602811653 37.44877775496956 -1 0 0
1977 1 14.743693356290425 20.22394762631201 37.67532628149118 0 0 0
217 1 2.9377448790221936 0.021304077915406866 37.51981241013775 0 0 0
178 1 -11.72102364395806 22.119909355680484 39.835869053776406 0 0 0
198 1 -13.233719331276433 24.745991079525076 39.86132253596963 0 0 0
397 1 -10.428179139494077 22.975260994600077 37.443405972695146 0 0 0
398 1 -10.395673034052868 24.703827824341193 39.77278458583794 0 0 0
417 1 -8.693423397632488 25.453248424450585 37.592804344863275 0 -1 0
617 1 8.942310323759278 0.01953774014702344 37.51136565860286 0 0 0
378 1 -8.72478825351697 22.0621039895868 39.906068460501984 0 0 0
578 1 -5.874973266349637 22.163482533744673 39.947920284122 0 0 0
597 1 -7.474328850929994 22.9737030686695 37.550769616164814 0 0 0
598 1 -7.344294553397226 24.647945841311085 39.928132002011594 0 0 0
817 1 11.823154862950572 0.0343488020648596 37.33023752533444 0 0 0
778 1 -2.9612443034259335 22.08667228172672 39.83134011011268 0 0 0
797 1 -4.406749841743482 22.908694045684822 37.51559121543112 0 0 0
798 1 -4.463694840323386 24.824096977978943 39.80002460360814 0 0 0
997 1 -1.3795440222625999 23.025443089907956 37.389584507978256 0 0 0
998 1 -1.4968160016994219 24.683984482553765 39.887374036686225 0 0 0
1017 1 14.642709039516085 0.08403206637969705 37.56113437276451 0 0 0
1217 1 2.939369780074415 25.390756266926946 37.61754837543002 0 -1 0
978 1 -0.0414561373734976 21.96420923094435 39.744096107796146 0 0 0
1178 1 2.882497223563974 22.0755588665885 39.83768629653382 0 0 0
1197 1 1.4289098818455397 22.874978256614437 37.38656299833158 0 0 0
1198 1 1.337840937473267 24.69700386264927 39.90121761139943 0 0 0
1397 1 4.242446949554262 23.003814394980967 37.47186664102239 0 0 0
1398 1 4.486729154014398 24.569507073945864 40.01145502513426 0 0 0
1417 1 5.885115256563509 25.34186657718647 37.56893925795411 0 -1 0
1617 1 23.59511682716112 0.057276140132624054 37.645141949041545 0 0 0
1378 1 5.828251211521135 22.04106840429487 39.84721088308237 0 0 0
1578 1 8.902339666097276 22.028022887623887 39.88157751420815 0 0 0
1597 1 7.549636832392055 22.980881080820755 37.56642398159216 0 0 0
1598 1 7.4005340182235315 24.644858399624834 39.82261090339839 0 0 0
1817 1 11.773210667831144 25.480484315379634 37.52849297615586 0 -1 0
1778 1 11.80626460744163 22.158216730221657 39.82966563044862 0 0 0
1797 1 10.302355653012393 22.9167777488509 37.54205063739718 0 0 0
1798 1 10.246268603222566 24.51788105125493 39.88053285223977 0 0 0
1997 1 13.34031698462359 22.901683544951293 37.487672022549546 0 0 0
1998 1 13.353002840860372 24.772527389505406 39.93814206021174 0 0 0
17 1 0.03439332568626248 0.0680867474934382 37.52203350449731 0 0 0
197 1 16.191327271905383 22.93579722114225 37.43074315317686 -1 0 0
1978 1 14.862106864059545 22.16050165200735 39.82128561344001 0 0 0
259 1 0.08257335564498158 5.202814119177171 42.19181842773634 0 0 0
40 1 -1.537762245853328 4.299189395420686 44.49291951855049 0 0 0
20 1 -0.042459889716917776 1.8124020157626788 44.520403155266706 0 0 0
239 1 1.511680629044142 2.4384792101722517 42.24644774431345 0 0 0
439 1 4.387988339130266 2.532921004740115 42.25788803452616 0 0 0
459 1 2.938042199023059 5.067351346178757 42.264393851997376 0 0 0
220 1 2.9736652861690733 1.8363822962328507 44.69415066795997 0 0 0
240 1 1.3931526766218838 4.240006613612457 44.545447568419675 0 0 0
440 1 4.410364561927227 4.273971522963901 44.521882208362726 0 0 0
639 1 7.254666632830601 2.466656961943538 42.291140813165455 0 0 0
659 1 5.926699245744905 5.041290676257517 42.28271857503381 0 0 0
859 1 8.853924411365329 5.07759119149612 42.16108189620609 0 0 0
420 1 5.923370198495432 1.760880519964254 44.660216760623584 0 0 0
620 1 8.770920676784812 1.8283912618913103 44.558203227448466 0 0 0
640 1 7.399949893696395 4.304241109141726 44.507956129299316 0 0 0
839 1 10.196647951572144 2.6486132562046962 42.16107416262488 0 0 0
1039 1 13.264588983122756 2.5068402040264037 42.15344457977647 0 0 0
1059 1 11.827742127313867 5.093570784266536 42.17459273782549 0 0 0
1259 1 14.679697963997647 5.050902755830774 42.15956942283578 0 0 0
820 1 11.625055745350435 2.0705422252801218 44.525053097604086 0 0 0
840 1 10.366564609422428 4.581484884817376 44.596076032488284 0 0 0
1040 1 13.459940628977792 4.303101143087023 44.62638297583422 0 0 0
1020 1 14.784621639416638 1.6589274990503735 44.50442429534532 0 0 0
1239 1 16.279925807451153 2.6956593729571803 42.156811896106824 0 0 0
1439 1 19.07298069184917 2.6163795649758934 42.26880158547828 0 0 0
1459 1 17.650406581528046 5.081927673143036 42.22825020680848 0 0 0
1220 1 17.767169151144614 1.5930101412672668 44.524784784998786 0 0 0
1240 1 16.328648764559322 4.102969042008439 44.54241225182882 0 0 0
1440 1 19.187347700280487 4.132155759536688 44.683630502955594 0 0 0
1639 1 22.10538170912642 2.51313200813496 42.247845309357544 0 0 0
1659 1 20.558554953128162 5.10767705647413 42.372070047778585 0 0 0
1859 1 23.590478393001977 5.081107766683255 42.20175146012922 0 0 0
1420 1 20.699914827708696 1.734243010486482 44.607167532761174 0 0 0
1620 1 23.579165168162987 1.6438681702642601 44.5193376150224 0 0 0
1640 1 22.18121055623271 4.28059414233364 44.6066322183134 0 0 0
39 1 28.03344497928935 2.468565592431601 42.20969736758696 -1 0 0
1839 1 25.10048228198907 2.5715238132072202 42.26695997762787 0 0 0
59 1 26.566984343655047 5.030141154744254 42.19390066327215 -1 0 0
1820 1 26.603018079722368 1.704648944535167 44.584055200021226 0 0 0
1840 1 24.992383194431238 4.252674538031944 44.54537833155305 0 0 0
279 1 -1.5314379601579038 7.59970181965285 42.24940593332317 0 0 0
299 1 -3.035012248993072 10.265813471741065 42.34350962815497 0 0 0
499 1 -0.05039239656211859 10.197494773666913 42.19343538810694 0 0 0
60 1 -2.9189290887814585 6.754613199955782 44.63035008053556 0 0 0
80 1 -4.552389470224724 9.46561924161928 44.59188431138757 0 0 0
280 1 -1.5722764108353335 9.30419446698658 44.56436118001335 0 0 0
260 1 0.014706162336677929 7.024330087199969 44.56105253196306 0 0 0
479 1 1.4828379665746558 7.7809015949605564 42.2795768262239 0 0 0
679 1 4.32636769863313 7.619840694089055 42.379938718105656 0 0 0
699 1 2.967806377887182 10.294630385965439 42.391494107322444 0 0 0
460 1 2.949800354509816 6.707682218433472 44.61401712821174 0 0 0
480 1 1.411230692114214 9.331022355814383 44.55269606807439 0 0 0
680 1 4.420230079739191 9.43859284033902 44.67267440836314 0 0 0
879 1 7.374350619756778 7.617981296343306 41.99066018412188 0 0 0
899 1 5.803271942962817 9.981373136845045 42.33498943099849 0 0 0
1099 1 8.896943254851072 10.289273799718783 42.10820187320232 0 0 0
660 1 5.961300536451618 6.684455904883912 44.54122734555816 0 0 0
860 1 8.80132750478989 6.975906422785279 44.593504312278505 0 0 0
880 1 7.427952600656166 9.409408699496913 44.60352182517594 0 0 0
1079 1 10.275378498174076 7.609208596266008 42.25585907682165 0 0 0
1279 1 13.388762642154104 7.627107791946657 42.30373707489119 0 0 0
1299 1 11.87388168664104 10.284317101360852 42.4772970911389 0 0 0
1060 1 11.80380171285904 6.826017663635822 44.54819682205143 0 0 0
1080 1 10.30509699518233 9.36442984846714 44.539178906603105 0 0 0
1280 1 13.419983948552053 9.368754928286052 44.554978164562044 0 0 0
1260 1 14.849806429869838 6.866147816680323 44.60896834118505 0 0 0
1479 1 16.24401960374453 7.57911682099966 42.146286738383814 0 0 0
1679 1 19.241188626625345 7.663856159089215 42.07671345496051 0 0 0
1499 1 14.908057182750929 10.170928542950168 42.15724458531292 0 0 0
1699 1 17.701205621936587 10.131794931900796 42.285216316340865 0 0 0
1460 1 17.72591472348727 6.826036875095799 44.582079004140596 0 0 0
1480 1 16.27866885724012 9.297127546057396 44.51793367102298 0 0 0
1680 1 19.31130124650233 9.530192484850733 44.60124582954408 0 0 0
1879 1 22.057802593187102 7.763996322502124 42.23670126520132 0 0 0
99 1 -5.888626004137481 10.36367279252293 42.193511225824174 0 0 0
1899 1 20.700535046229735 10.332032464995535 42.26551513967814 0 0 0
1660 1 20.693369132919273 6.723147559064861 44.62445675040124 0 0 0
1860 1 23.774186704569892 6.872781517297216 44.57008348947017 0 0 0
1880 1 21.93320701300264 9.383274111418139 44.61335007490079 0 0 0
79 1 25.024397653895836 7.724233584292046 42.274298695775535 -1 0 0
339 1 -5.769824243540855 15.492063901757996 42.243968150676636 0 0 0
100 1 -5.997892174437841 11.910437121241547 44.547510407949865 0 0 0
120 1 -7.192029351496471 14.511373382889534 44.63972070800221 0 0 0
319 1 -4.437380160870859 12.89983811355439 42.209992165642056 0 0 0
519 1 -1.5023596068083123 12.879603026784563 42.106426334877746 0 0 0
539 1 -2.8725827871964733 15.26654462588714 42.16525300386228 0 0 0
739 1 0.11143546099318524 15.15475526470171 42.27783139504419 0 0 0
300 1 -2.982534841596002 11.877003301636721 44.476750811972934 0 0 0
320 1 -4.171623820384092 14.586057490873275 44.669562797580824 0 0 0
520 1 -1.4021897722720522 14.507025179673205 44.67988781919518 0 0 0
500 1 0.016486715708903418 11.86862739687846 44.497103668200516 0 0 0
719 1 1.374756483832857 12.727146869259427 42.21304546963608 0 0 0
919 1 4.465665464165787 12.685249269950413 42.27865569524491 0 0 0
939 1 2.937059289931757 15.247661353570175 42.27925698419812 0 0 0
700 1 2.955490528263383 11.906447562794398 44.63421995305942 0 0 0
720 1 1.5396535936826814 14.486762501697292 44.66977684359719 0 0 0
920 1 4.5204502800684985 14.466262111932206 44.63583531955471 0 0 0
1119 1 7.365763839843318 12.663126283416476 42.181911986570746 0 0 0
1139 1 5.8937653744872165 15.401411484007776 42.17882630480816 0 0 0
1339 1 8.871932562211315 15.410552216633915 42.2250802288164 0 0 0
900 1 5.958709663344186 11.929819343293806 44.541793498062624 0 0 0
1100 1 8.940658411750585 11.93397463786017 44.660708769026854 0 0 0
1120 1 7.367515351963817 14.478104440786476 44.46888457230417 0 0 0
1319 1 10.395568298760226 12.891312595192955 42.36792684783924 0 0 0
1519 1 13.27552731858753 12.8149896214095 42.26192637440801 0 0 0
1539 1 11.96743548356815 15.390533762656208 42.19364682482418 0 0 0
1300 1 11.848774863259953 12.030852213647556 44.68509571873587 0 0 0
1320 1 10.405994690085786 14.496873160769317 44.7502677590482 0 0 0
1520 1 13.256087010361552 14.546779893345517 44.53768684181116 0 0 0
1719 1 16.322861107458227 12.706170603501064 42.27988120683148 0 0 0
1919 1 19.201663060870086 12.97233220202673 42.33147907483868 0 0 0
1739 1 14.679918002429526 15.299875406661256 42.280468615512284 0 0 0
1939 1 17.65336053299125 15.464366167591706 42.322809759670754 0 0 0
1500 1 14.788900298767755 11.904761526683897 44.51513855151866 0 0 0
1700 1 17.782869384681288 11.92894133943506 44.497697281803966 0 0 0
1720 1 16.239253316280095 14.596283850422108 44.708734627537716 0 0 0
1920 1 19.169190657430317 14.527166483547534 44.610716033303866 0 0 0
119 1 -7.335119864948557 12.862818285400008 42.18350680397528 0 0 0
139 1 -8.656909363345067 15.268597413524247 42.256419151159825 0 0 0
1900 1 20.76879579162313 12.040444807061771 44.603608287197076 0 0 0
160 1 -10.453645479271835 19.654539636517516 44.74100512309741 0 0 0
359 1 -7.371958637689097 17.849541494015288 42.22906143771859 0 0 0
379 1 -8.816395329744951 20.390766487753016 42.32370973066644 0 0 0
579 1 -5.873144989043505 20.401607945527328 42.38532861052365 0 0 0
140 1 -8.742687181928938 17.08065265826477 44.67558896073254 0 0 0
340 1 -5.887612492973954 17.12857034366095 44.61191919016161 0 0 0
360 1 -7.353356059781818 19.621936704660985 44.633520048092755 0 0 0
559 1 -4.42836264040578 17.94094797043795 42.23901217811455 0 0 0
759 1 -1.4398642675920712 17.816870704315463 42.15505895093613 0 0 0
779 1 -2.896219449163931 20.42687582792869 42.17672659115387 0 0 0
540 1 -3.0335541339015326 16.943261376443346 44.547755862377294 0 0 0
560 1 -4.246546401340662 19.551033841783827 44.60661811616909 0 0 0
760 1 -1.4373299007881426 19.570847455475118 44.64442155553096 0 0 0
959 1 1.4282133723759234 17.897266747795022 42.100406017856294 0 0 0
1159 1 4.355135564712537 17.87809106231756 42.22523710444686 0 0 0
979 1 -0.056261277449705 20.419733947399525 42.25161485660674 0 0 0
1179 1 2.969943032114346 20.43924560854373 42.161927553283476 0 0 0
740 1 -0.007454145987184031 16.968199851447835 44.44111068736673 0 0 0
940 1 2.886311958978976 16.950528786576683 44.56355489752402 0 0 0
960 1 1.481194462568361 19.616655907752563 44.58466866873342 0 0 0
1160 1 4.356821504328064 19.588852972731715 44.69233825779059 0 0 0
1359 1 7.361288950292291 17.855812391038512 42.37778109302611 0 0 0
1379 1 5.855528799808036 20.21915923539617 42.20431794580977 0 0 0
1579 1 8.849298519689086 20.28459586349044 42.20700651526812 0 0 0
1140 1 5.907774397134187 17.041859500755127 44.60666334337128 0 0 0
1340 1 8.941868063560465 16.868868940349522 44.54887952698623 0 0 0
1360 1 7.4497297397705005 19.56345094163817 44.52670607750743 0 0 0
1559 1 10.218976136910653 17.81320665170766 42.23585559452602 0 0 0
1759 1 13.17185326206815 17.82887984711099 42.22056426630613 0 0 0
1779 1 11.907580187035707 20.44123024063255 42.23339543557494 0 0 0
1540 1 11.861095966468252 16.942686688378657 44.620134848656825 0 0 0
1560 1 10.377696087644923 19.49321269276422 44.57053130400614 0 0 0
1760 1 13.276240038652052 19.561928847761067 44.47186132055792 0 0 0
159 1 -10.253675996482642 17.83385752559013 42.39342993953891 0 0 0
1959 1 16.130411213030644 17.9028361718304 42.28175089312104 0 0 0
179 1 -11.770872302472494 20.473087050376737 42.34396549130848 0 0 0
1979 1 14.776749764348448 20.515941801842427 42.23723498727785 0 0 0
1740 1 14.751651839938177 17.080727489456105 44.65842077652811 0 0 0
1940 1 17.890404015516232 16.97411993155117 44.5572749990166 0 0 0
1960 1 16.298498599919853 19.596917047967306 44.62044757694413 0 0 0
219 1 3.0514503267677706 0.02507696438423886 42.27313461696233 0 0 0
399 1 -10.335370068308842 22.88789391119004 42.273283684588826 0 0 0
180 1 -11.711107403489592 22.225711363876435 44.67124417390744 0 0 0
200 1 -13.159921693368926 24.754936244770796 44.672890315451625 0 0 0
400 1 -10.277372274163035 24.829062008595514 44.599215178117696 0 0 0
419 1 5.8744892108600615 0.0548206811326074 42.10328712483001 0 0 0
619 1 8.843040267158212 0.028062858064186867 42.19438774279407 0 0 0
599 1 -7.416308703083074 23.030195112598438 42.26655631939631 0 0 0
380 1 -8.826836583346475 22.15461592869391 44.4799965647384 0 0 0
580 1 -5.755810696399367 22.10634752108863 44.58495021143117 0 0 0
600 1 -7.2096729291524335 24.75388851514297 44.462701744023185 0 0 0
819 1 11.749442809781655 0.1439979492076353 42.28776799342407 0 0 0
799 1 -4.480979058315059 23.102929934529115 42.29066755723428 0 0 0
999 1 -1.435703206510487 23.07512846122666 42.16589173696006 0 0 0
780 1 -2.91854709847559 22.24521332956879 44.55777421305406 0 0 0
800 1 -4.363317119811221 24.895993274968113 44.65407813854885 0 0 0
1000 1 -1.5355351344799766 24.793191027010156 44.539988841077786 0 0 0
1019 1 0.08912673777024882 25.520126019874407 42.226154595678175 0 -1 0
1219 1 17.68260276788989 0.017851897705590182 42.30497468786368 0 0 0
1199 1 1.3969459604385204 22.854321802003845 42.158166632350955 0 0 0
1399 1 4.376857352132486 22.981918516742436 42.23437159560009 0 0 0
980 1 -0.20033527433642978 22.11613019341175 44.57618821217963 0 0 0
1180 1 2.9597932023679516 22.10542006443197 44.58584084028423 0 0 0
1200 1 1.4928964013988184 24.483332397602712 44.5271422430348 0 0 0
1400 1 4.447048351578706 24.672220464749657 44.417582149382746 0 0 0
1419 1 6.023420356192396 25.515091335364495 42.19639291661683 0 -1 0
1619 1 8.918612443300823 25.43868958673626 42.08741895136357 0 -1 0
1599 1 7.366210388666641 22.896034128967 42.22581800794796 0 0 0
1380 1 5.967868018380347 21.965985612087195 44.39545022723527 0 0 0
1580 1 8.89057439851728 22.033286736486822 44.596946061092474 0 0 0
1600 1 7.351961983811316 24.56002836951348 44.47380595667976 0 0 0
1819 1 11.841364586546984 25.520107335227205 42.250520143833455 0 -1 0
1799 1 10.285517418484343 22.95751281646713 42.10637021654826 0 0 0
1999 1 13.277908437395945 23.045904708854852 42.2416729133838 0 0 0
1780 1 11.82127227994854 22.189708205232083 44.62717234137797 0 0 0
1800 1 10.329958154796387 24.6758739825398 44.52164900623083 0 0 0
2000 1 13.329601416305396 24.72160021332492 44.635899221297336 0 0 0
19 1 -14.56688689641314 25.429020899957262 42.355924783510176 0 -1 0
199 1 16.256270327951793 22.774449040273613 42.21525871585702 -1 0 0
1980 1 14.713877442003914 22.1203744021628 44.47160708149281 0 0 0

Velocities

22 0.03958467491746885 -3.5924649276703997 1.359838346307897
2 -2.6002418554547018 2.9063477394516735 0.6865609931716117
241 0.9843492241434316 -0.6263937640663578 -2.2156260730542296
202 1.2037225386324188 -1.1226788461906931 -1.699155495089491
221 -1.9896156524389261 -1.443713804465873 -0.08342147832569906
222 -1.0422883087893602 1.6622148439265287 -0.16887359083637354
421 1.7724643287008954 -1.9632708463349613 2.32381648862549
422 2.353700544486385 -6.331453720503547 -2.5890265403653303
441 -0.5397444020436987 -3.0160643661942332 -0.8073960951752837
402 -1.160223771803199 0.41812069065660856 1.377341247298042
602 -2.0263181758787003 0.9599670446945868 -1.7167193968887986
621 -2.233296162932508 -2.4054329272227455 0.19706489233615992
622 -1.5148026926661111 -1.059486045511202 4.795797401128
641 -3.330251645677197 1.3569919915165547 -4.157207080315603
841 -2.131931190532452 1.7673093226101684 -1.2519185563678377
802 0.6796529701850269 -0.39827262499727156 3.9395879110361993
821 1.337565149149013 0.4584683860302498 -2.4716205778665317
822 -7.199462934335725 -0.6757433061661599 3.7517854196901403
1021 3.4099550121926563 0.29882081249264847 -4.28289736948532
1022 -1.2131627760149366 0.08549952690924652 -2.8087689807457132
1002 -2.2332224649031214 -5.092980688497166 0.0842869624139893
1041 -5.582159566790639 1.4705055841423396 4.185093916067294
1241 -3.585930818010899 0.3383283073892862 0.4426426363396372
1202 -1.1232207621430397 -0.8928194320887436 3.9186916152080236
1221 -0.9714745469021566 0.0983583176140803 4.726749105269842
1222 -0.933607864748642 2.4277044279952937 1.3425862962712325
1421 1.2426214748494901 0.24282643997917683 1.2373553572589058
1422 -2.1194095485912006 4.759461548885724 -2.940807842094307
1441 2.0361082322160806 1.719996640295409 3.263143435901003
1402 2.2073567857486336 1.8354706155088634 3.9787492632832153
1602 1.2714941922987615 4.796896743334272 -3.9709169367326624
1621 1.6828993433043542 3.4382652923586194 -1.6379707005719233
1622 0.10339610116379663 2.298355448538307 1.56640523786608
1641 2.425426470683535 1.27854359129822 1.8996344093856392
1841 -4.39506387074808 -6.8038479929579285 2.8592041762008003
21 -1.638972059237358 -1.6176146553853599 2.8465922849292262
1802 -1.1129699481971804 -1.53904369640558 -0.9832446710019302
1821 0.5996551309859116 1.2450503725241069 0.6216266679535398
1822 0.4667981458089398 -3.590718760108817 -0.8124803597328724
41 -1.7115640892843622 -4.219492514822501 -0.7524732572535713
42 -0.1383862834482724 -0.548092124874892 2.0890983343359
62 -5.154771479974711 -1.5651341725652326 -4.457682573823963
261 -0.3857685889929502 -3.450427949623114 0.1435237011802555
262 0.64013863491898 -1.4898836509337334 -3.0962842077707804
242 -3.8887902913806465 -1.5827396717110926 -2.646102267151731
281 -5.565561164028316 0.8674933580916545 2.591906883277538
481 1.0731756223127509 2.422988033227339 0.754589742346725
442 1.5865681146679862 -1.8644133899978943 -1.4447500663769082
461 -2.4437683331199884 -1.0071630845212785 1.6580471798437917
462 -4.051591152495391 -0.1682457952453733 2.9011293146682724
661 -2.4637535844918066 -1.7726938342795793 -0.8351124723850976
662 0.8424921881626594 3.379577210578384 -2.2938319728251098
681 0.4011198079168628 2.301325070079475 0.10380215652375638
642 1.128216222308326 0.6458115094209198 1.0178737132916538
842 -1.6021485684656902 3.582850709348416 -2.8313522745328097
861 0.10871571162049842 0.860595308058968 -1.4202977623189579
862 -1.4918532041701296 3.2002366230378017 -2.0180870336728876
881 -2.0643275002977006 -0.4158456676817505 1.1100165917753393
1081 -0.9839159849585944 1.233369557952528 -1.824002172946527
1042 1.9163277224571433 4.894805820128015 0.13390445108651752
1061 1.8477828223074066 2.9248042207720895 -2.511789210828195
1062 2.88750705884827 -2.3584998558625423 4.59056067602777
1261 0.21807226408807778 -1.5682472499504243 1.8919479483248958
1262 6.577733287815398 1.8438425096253996 -2.743913238294606
1242 2.606311336246807 -3.6297172999460297 -2.5203727178002864
1281 0.7802914448845415 -2.9497755923924873 2.4025002160518665
1442 -2.990616868026533 1.5047204548892679 -0.08342438334848175
1461 -2.2281666479952382 -0.6505095430919039 -0.343063456630114
1462 -2.9017244610292217 5.713547304043193 2.1419131878150504
1661 -2.0606534297880055 2.0159750655396373 0.4902043295665131
1662 3.174142753409082 1.7012487722047553 -1.2045944192072386
1481 -1.549879383554372 1.6608356550581929 -5.8427219671272335
1681 -1.561254227872968 1.6443453632356066 2.057484848026817
1642 2.0766956770638743 -0.21296293203016028 -0.3485925784479693
1842 -3.036570239545126 -0.6121288379678543 0.8214214106761561
1861 -3.314880314679768 -0.22949477281161412 -1.4013926141807564
1862 0.29808521493812995 2.0254031799724306 -0.4339803362974808
81 -2.5835788710623597 1.225823919131355 0.9828546338195076
1881 1.8218966655122966 1.0781716809697086 3.079804108767699
61 -0.9861861030636687 -1.4798258285395816 3.728196701344066
82 -1.659992633673204 -2.723572398330543 2.866883428369321
102 -3.0789865409437205 3.0962968268358586 2.7081297218282305
321 1.3072544608414307 4.820277668203863 -3.1929104561350883
282 0.3172853547042115 -1.0359592450249269 -4.31069937350982
301 1.3332375519433781 0.7812003537700818 4.030256005780692
302 1.8273670034435059 1.774747037637248 -1.0480645772171673
501 -0.8977076790757396 1.459080517827473 1.8238932545048243
502 2.7148709144235292 -1.1470595449341985 1.1977692225326035
482 0.570021118297932 2.6041119925564002 -0.5768314307825336
521 0.33419313366479053 -3.0631784988435298 -1.4992085127328427
721 1.9345508290653155 -2.8954504501397613 -3.082173063933752
682 -1.9702826699214142 0.4009686525539818 -3.1920911560647407
701 0.5807061726111415 -0.697444156366402 0.4711687617624783
702 2.6342569601745383 0.19411952582902883 1.6122583347975201
901 2.0599791589877725 0.8118312427542289 0.18132287043201872
902 1.672561986633963 1.055549863145676 -2.0716169517458973
921 1.2376998729991742 2.2006997732205438 -2.0560144949138253
882 0.45462431163476746 -5.90287845180681 -1.1218600238363032
1082 2.5413023451890546 -1.7265266902724945 2.208904802899052
1101 -0.9416551723285679 -3.5023876293399856 0.29863957975150357
1102 1.3449546441360434 0.7063402160522055 -0.22147610895130593
1121 -1.69219302603992 0.12310772110730639 -1.5719143795947552
1321 -1.6783454300645806 1.6718431880956433 -1.5784520174761643
1282 1.1272645567981128 -1.8025300519596736 1.9152687486921258
1301 -2.36252800005054 0.36528604121116287 1.8955120206525244
1302 4.175407657573803 -2.2516008611517644 -3.3428703877586563
1501 -1.1162761558965224 -3.9907551037895237 1.3220748564435345
1502 -2.472253549690595 -1.621745610878849 -5.784643874052815
1521 2.531467120622608 -2.3900399577684577 -4.975234684664934
1482 -1.4781695700648732 -0.2043242791142709 -3.71604887300929
1682 -1.7926041231218108 0.7342541436289965 -1.4305594764462795
1701 -0.31870443141830734 2.120432236706159 -4.718247880220374
1702 1.2054201431408331 -1.1731607109342586 0.6729928851347062
1901 5.179925480066429 -0.8607208671859513 3.079681644696399
1902 -4.724314797854329 -0.4797789695170663 -2.541801700161133
1721 -1.6132888670075336 -0.14697921932857863 -1.4587840474070315
1921 0.015935389890068773 2.729193022148072 2.329562154674004
101 -0.031129588881778025 -3.5131595625044305 3.5250553548171024
1882 -1.6887985842970064 -2.41422468232374 0.387890214182489
121 -3.697138141692133 -0.18029334417592316 -6.604133633044764
142 1.9210016428236516 0.3158711408809156 0.17693742940450538
122 -1.7078967430286804 -1.3925688620546262 -0.9911974079249275
322 -0.9982466101318804 -0.4268859678313039 -0.8873281079656422
341 0.5913831183661254 -0.6804566215196476 1.8508616343483792
342 2.4737661878790407 -1.6079306203966677 -0.24949735302250073
361 -2.92737456004132 0.5284752126920594 -3.433116952402988
561 2.4983706165259 1.599612703756875 -0.589747011380253
522 1.2652115780251965 -0.640846484806928 3.3114259445837915
541 3.836536277552462 0.26699572581365005 -1.8450561794757159
542 -5.378531647678158 -2.2406176635252453 -0.6065672625049972
741 0.5704891159339908 1.0396916552769027 1.984736179798712
742 -4.145633161844136 0.17081706728524454 4.328761195841069
761 -1.556487690202699 3.341044583178442 -0.18974886215449874
722 0.8883369291203629 -2.069978828969086 -0.8079261815906305
922 0.14568076855594164 -0.9390546799148631 -1.3249340124016953
941 -0.9241214765016522 1.8845188433163857 4.4950918855495585
942 -1.895317534397078 1.256478700472036 2.786640905229528
1141 1.5491341591542809 0.06414656421817866 -0.36032429847569475
1142 3.01620420473853 -0.4668186246104069 4.388508632960636
961 -0.12268430834235568 1.9395454271685006 0.803047146307074
1161 1.0486657217665956 1.3637077683892473 2.23127377103262
1122 0.5515952546732416 1.8033266158535604 0.8547869488795279
1322 -2.3842300797433795 0.9327844610992551 4.950408733726644
1341 -0.11602712404250438 -3.668284417833719 -0.9050609619395328
1342 0.6933111348664099 1.32099513477399 -3.26468676318344
1361 0.8084477073162084 -0.27688148658805595 3.143132611470475
1561 -0.2729323850843159 1.4623313949071057 0.9292011056254126
1522 -0.6864018515632331 -4.824979335633137 -3.567293050646651
1541 1.2578773735763447 3.483266510746936 0.16245923528618564
1542 -0.33189109371029063 -2.9087849435136945 -0.8337876112004018
1741 0.7858497299104352 -1.8559192920948473 -0.2545960080937071
1742 -2.1740068805627426 1.6972824587933406 1.9375556561224407
1761 0.17838823914021537 0.435050116173579 -2.5764510897336965
141 0.06244953795718327 1.523716393280814 -0.7447649576326253
1722 1.6432897695698778 -1.8299247773474983 -0.9692850781769704
1922 0.2752456558836551 1.759753556214806 -0.8373830091442663
1941 -0.2873210462605482 4.300183248623892 0.8783457710373325
1942 2.9262775169561825 -2.5560724404296655 -3.0894002476812026
161 1.5458994352474507 -3.690288154703271 -1.9236762782858985
1961 0.8691534625702777 -2.057863574414134 2.9665524513106667
201 0.9730418798787803 3.078969155198581 2.924791067464978
162 -2.2832696194098703 -1.9325081303137408 0.7215698922956417
182 -0.8352660035218996 -0.9012512729090754 0.803025045027516
381 -0.07329563286949071 -2.9342104739261017 -6.482523867586906
382 -3.4298686319618206 0.23870766760204912 -2.7386378371598994
401 -0.2190360368548586 3.28646831090336 -0.8434814310730041
601 1.822348524933405 -1.9010612688907573 2.147198095797231
362 3.147053221471926 -2.6806086324746277 0.7928158984172659
562 2.732915580027476 2.6941696694435255 -2.827247555874771
581 1.0033701257302718 2.068128786516717 -0.7285060306233996
582 0.8970393935599176 1.0758900955272164 0.7958439051107205
801 3.113740105254579 0.27977774350925183 -1.5714722379281325
762 0.28266479193158867 -0.8796096969788935 2.2907852938696847
781 -3.2716429693157303 1.9591213991534384 1.3073819525547086
782 5.430777755945633 2.96815956477911 -0.7642943063854155
981 -2.1677833995113613 -1.457781325994143 1.8980123676436846
982 -0.9862946720300978 2.537329836396561 1.1396588668259535
1001 0.8856765516329559 -0.32555362278242694 4.705386697908971
1201 -1.689340290420369 2.560731992038497 -2.4886091537444246
962 1.3016338341491422 0.138699331700681 1.7206729028541046
1162 0.9883385983693324 1.142085023778792 -1.818402016369888
1181 0.4117806409532936 -0.02374359273480741 1.2065319054609056
1182 0.5447890901539593 3.0551273718374925 1.5766248011508501
1381 1.4412942778718825 -0.45691110895140225 -3.518418879991585
1382 -1.3136283776587743 2.781928772554024 -3.75286168750093
1401 1.4058273639053962 -0.9571052449738984 -5.1249005941539645
1601 -5.290610551437646 -3.450481794832423 -0.757298768617867
1362 -3.2728856677090867 2.7499243485980753 -2.103170441734747
1562 0.5358393004227733 2.8707137277495773 -0.7414631455937728
1581 0.457649663237358 0.36527242679483063 1.0924970875085676
1582 1.9643779213428043 -0.9747587422621576 -4.643439774550969
1801 -0.5985007433762776 -0.20201325225417466 -1.290452117170812
1762 4.0916404154659745 -0.24730004457925284 1.725262625234359
1781 2.027105316392415 -2.6378631811147537 1.8440910975635523
1782 2.080824990169924 -3.0004685192609766 0.9546448725541709
1981 3.113963183365697 2.0070630684489323 -0.6677854388244067
1982 0.7015694850377777 -3.876814866651979 -2.5816049570362054
1 2.9687580116790797 -3.913111151943401 1.291760667441983
181 1.6836852884875806 -0.5515143149574221 1.100091193413287
1962 0.8481511556827483 1.7122041318133243 0.023837648073499352
24 -0.6185369532128296 -0.3042088626553803 -0.7577331196869398
4 0.2850104633453529 1.2240631302531138 -0.1162259795405083
243 2.0116219764020706 0.6832670690338805 -1.1426678980782892
204 -0.9289984706780244 1.6477490364023735 1.2490897312327622
223 -1.0497885705803844 2.962601272800448 1.9928889259365326
224 -2.4927436567614865 1.1360398662465694 -1.5838389970016096
423 -2.14398192159284 -3.549412303996058 -1.3776101794566284
424 -0.9825551362343962 -2.7312628471235305 -1.4857197512745364
443 -1.2060256547788095 -3.1912782845678898 2.8134233530024604
404 1.9035336669469645 -0.6217689121639434 1.2295800043223775
604 0.07476467607908321 -2.3522118190463663 1.3340403641827234
623 -3.0523961939074766 -3.535860383633212 -2.8678878527089795
624 0.6853598587455604 -3.472743343607926 0.10663769400933819
643 -2.946611680196314 2.667466210154635 -1.9159785035868253
843 0.6257491041410037 -3.0971022592389454 1.6475504319632888
804 1.0374760113232435 0.6023226345623609 -3.308922019650795
823 -0.4423761066046199 -0.705916195733553 -0.3399802591856068
824 2.379516283998879 4.717083604500928 3.2618202382969037
1023 1.8081843083699953 -0.5339870752878619 -0.46464303335446844
1024 2.166628384281004 1.4427899203976216 0.6378068675985666
1004 4.180805556480345 1.1614314230058276 5.034139242279403
1043 -1.0852259273257452 -1.7621244891289047 0.7199851592092185
1243 0.14369505570045127 0.20509401647649422 0.4449723360222344
1204 2.878748908662236 0.7885658473243088 -0.907563201573059
1223 0.6869939728723621 -3.9326287770748274 -2.886399239511751
1224 0.08076007840721693 2.7749785954000594 0.39322618223831896
1423 0.46048184956032834 -1.0508995916683102 0.5531344581655856
1424 -3.630654882798366 -1.0164455041558886 9.57288232470444e-06
1443 -1.2889903755538088 0.8948933872804692 -1.660564680482152
1404 -1.060904122282602 0.6390064252716238 2.9964163201243794
1604 0.9413310481665721 3.549211044624641 0.10069630283276407
1623 -0.13683252171504326 0.09110551420307313 0.37354806020548936
1624 -1.9152749412386212 2.569976579542057 -2.566151111034561
1643 2.5397274513261374 0.8091253326578055 0.18927513297959447
1843 -2.06511594507046 3.678529844272819 -3.9432530363080636
23 -1.2017611443144187 -2.321839293175528 -0.47885851362893156
1804 -1.8528715921384833 -0.8474806645825368 -0.5483375977572714
1823 3.8446963921539274 3.5685379605711844 0.41554348265080715
1824 1.200334838941576 -2.1835654478079367 3.387487385746005
43 -0.10850968152648373 2.8657451059923797 0.2132515364543128
44 0.032279206906793534 4.274968760214338 -2.4560701880616507
64 -1.8851933299996022 2.748818979924391 -0.20397646153761603
263 -1.0192660782512415 0.8438625753397245 -0.15032741265440253
264 4.050377336859849 2.782902560898486 -3.3260517010948347
244 3.6362431802611264 3.670077787251569 0.8282444515894865
283 -0.12833057076277432 1.6941523079316534 1.3288610259235136
483 -2.2482972016777367 0.18677458196078495 1.9510803841518085
444 -0.520315678312391 -1.0753749187701105 1.6922879903080026
463 -0.10738568969855991 -1.809094886812887 2.1994223942197704
464 -2.734748283020494 2.1532219724813815 0.07447304995922603
663 -0.25133544603420704 -2.6143201140423047 -2.3822109963309277
664 -0.923321714483681 2.9870850690781565 3.3911004308337165
683 -1.6389727968186862 0.017863775501335166 0.06523118430705016
644 0.14149543670667653 -0.5359974707137996 -3.2659804719106726
844 0.012136728606448224 1.3920088714419876 -0.9344225400867416
863 3.192667035709542 -0.23279443699030852 -2.8456513131431467
864 -1.4304485946545449 -2.4393455006244555 0.7174636935516582
883 0.6681143574608351 -2.6717884267213616 1.6190753889145175
1083 4.510716329184256 1.6233803548522583 2.072915338220576
1044 0.22703306071126012 1.8251384371972557 2.346387305348755
1063 2.955142317266542 -3.146973602895524 1.4928495675917677
1064 3.3882566831621537 2.6079390968259126 0.46128257748279433
1263 4.15802710781099 -3.344531518427701 -0.20660672866431315
1264 5.446193156342716 2.0398328501535423 1.5587524609085504
1244 0.31321974621698206 -2.8110598307493238 -1.3524922719409285
1283 1.0161178086804739 -2.1559495724331788 0.20570156437970818
1444 2.7482491368067548 0.5051764180747094 -3.0284748554448075
1463 0.796179563070794 -0.1730084616338314 1.8377245301952672
1464 -1.8684196035505893 0.5056304094624647 -1.9446497864747863
1663 -2.326312441555271 1.7982588026235284 -4.1256357690528995
1664 -1.979749560319123 0.6364891720862172 3.7127940773465746
1483 -2.7622277374004582 -1.6296966210441326 -0.40654127725156586
1683 -2.2105295153807623 2.1113080477695383 3.9535569931712513
1644 -2.391129227929524 3.7925194080746722 0.40614143464285546
1844 -1.698448698829593 -0.11258370270492957 3.360786195388225
1863 -0.6210174465394755 1.498754101676394 -1.5204038403392717
1864 3.1594185346761687 0.22914601649110997 0.8423130716916492
83 0.5838315071545086 0.8462642380112667 -0.6973599991507008
1883 0.16595726276142078 0.6460420648157352 2.686417764168932
63 -4.083152081461044 0.43081016662098925 -1.0890339351618976
84 -0.4144709018101495 -6.201176677814435 0.7191069090421125
104 -1.0118210718784304 2.7087981545577753 0.10175092413455425
323 0.04911680752324348 -1.9491143010566587 0.9781712040803823
284 -1.9301098261708842 4.2769844881957475 0.12383644039649654
303 0.8758837374383116 1.7675058472577316 -3.831366783111305
304 0.31821807267925617 -1.8613108505664189 -4.795236267788893
503 -1.5477093434964648 -1.990078567362709 -1.943328077924486
504 1.0446235054604054 -0.36135244870842437 -1.8090717996443735
484 0.2534575567028488 -4.209022166941228 -0.7018846162924923
523 -0.18478032550652207 -0.06904360604711525 -0.542798327568423
723 -2.299447797584128 3.5960099693699066 0.015744945200730796
684 -1.0553998528790716 -0.7252188531778715 4.835222121473161
703 -1.9765267529151587 0.7604666148312629 1.508179991628976
704 1.4483562053205339 -1.7897948526879965 -0.14582190067318634
903 0.3712364166917053 -0.198261510523266 1.7741942817802527
904 -4.283703547968533 -1.3789166418014034 1.0914093126928408
923 3.7908435882638725 2.624708569792932 0.7725248327847798
884 0.22342254307868847 -5.919158511953385 2.9086300591247904
1084 -0.15728945670118039 -0.624602876243266 -2.8199287721255204
1103 4.557660201670375 -3.314369547518822 -3.918054775177531
1104 -4.242337602854989 -0.9448870075798073 1.9963556499059283
1123 3.4652386461522817 -1.2061228070236132 -1.8474845944534346
1323 1.1663722714144522 2.9862949098108613 -3.967250191514171
1284 0.9722656473759154 0.9993915001597383 2.5813938565640355
1303 -3.5928909255069748 -0.8001636986114573 5.807574405662102
1304 0.7721655981426021 -0.8018202890350398 -1.511458391033471
1503 1.3363942207115223 -0.032796042868810334 -0.4091764570631579
1504 -1.0263689603885449 -1.0650354233261916 -0.41543127952302666
1523 -0.7351157271138413 1.185709263160188 -2.844356140800091
1484 3.1392332222742287 -3.9840056612152095 0.620898055301521
1684 2.235954199200706 -2.7101979707767203 -0.8612590329405758
1703 -1.5554372097651754 -0.25489855982178605 -0.4504847356998062
1704 -2.236209578943282 -1.7495570566365994 -0.489176175901982
1903 -1.6807874778916068 3.4290519639447736 0.7585338763974173
1904 -4.195918633870743 -0.04525737542440034 0.8063574441993844
1723 -3.658885761313049 -3.4099783447222998 -0.36433396149732883
1923 -1.4598962081434306 -0.2778079696038892 3.094724557676212
103 2.0180734576296757 1.9539341174772216 -2.8149014740564455
1884 1.895451846368502 3.5980733595111936 1.5191435756963045
123 2.150507985146861 1.9320007830296113 1.7610911771174256
144 -1.1122456460377352 3.05188262629327 -4.904120992900623
124 -1.7910562829990833 -1.9714057591242793 3.2846331294352766
324 0.6247673526676367 -0.03774584412308944 -0.12091917485069903
343 -2.309655180094397 4.136439816481536 0.20947902678725797
344 -1.048232660988937 2.6476758575767243 3.449348360457759
363 0.1875961184912392 2.288700585504745 -1.2010229481731247
563 2.466337874171148 -0.23613432303210347 -1.4336747690650986
524 -1.1169031069135043 1.4834343835660804 -0.7913504963089646
543 2.325413812854416 -2.7824053486663383 0.21946782967188638
544 3.727087971703103 -3.8374590191255575 -1.6832638502586974
743 2.5066954407784054 3.8437415074631005 0.02029201689495803
744 0.24624573278608122 0.05554586905926688 2.574145557279921
763 -0.014244085695319951 1.6152509238838302 -1.2835431140152829
724 -0.14286122632101056 2.081780838051369 -1.9773963693763104
924 -1.8348207036620081 0.11379967244673916 0.1321414791561106
943 1.2021496626366037 1.5412290298237088 3.20407401771502
944 5.7566051640006615 0.018735936648385198 3.9328303783202863
1143 -0.6245859574953712 2.310003986119651 4.7451331265923065
1144 4.109634581488315 0.7136449321923428 2.9936037732447867
963 3.716536675834153 -2.168769953347012 -1.1607330411688943
1163 3.348537510197059 3.9948029084398713 -0.9784631836337475
1124 -2.071211351655694 0.5017412107384068 0.8371810286618598
1324 1.1231974533749742 1.7073444129378943 0.9323652495700798
1343 2.602019062858713 0.6617281505188288 -0.662641986831032
1344 0.45519127369337226 3.9707097398475253 -6.061718027039205
1363 -3.4398361929994445 -1.518091305337628 -4.309812062973257
1563 -0.1209632629583545 -1.5424327466087746 -1.7903643588177922
1524 -2.4423251123792333 -3.2578225947562878 -0.03311173376321228
1543 -0.6025288303179742 -1.2585359085677077 -0.19649794306104196
1544 -1.0733569206224935 -0.3487325289988175 -1.4166835136600644
1743 0.855238179343103 2.0589937067338737 -1.0600392378446915
1744 -1.0058802096457033 -2.141119252696074 2.703817073194384
1763 -0.006113319815857708 0.49595883820339753 -1.845725850112156
143 -0.5528950805561541 -0.8240341713085039 -1.0480845135514878
1724 3.158381581554288 0.32469296988197655 0.6762199843876671
1924 0.48174336733507295 4.712044548411824 4.329459304263517
1943 -2.0210129723013637 -0.43942988146140477 -4.596992884128446
1944 -0.9955780398909778 2.194954454135147 0.6232771229119578
163 0.9342478979798229 4.610975404822921 -1.1558752273579271
1963 0.9509587897827406 -1.1968370612571892 -1.5415999727972418
203 -0.004644364977184518 -4.637665444833987 0.43308595831061125
164 1.0449915465335144 0.15924008225173017 0.6697351283782538
184 -0.4027752577741256 1.4811361578731916 -1.788001965025399
383 -1.5064705747757066 -4.675935903588476 2.6167304961854234
384 -0.0007444609840481094 0.6041168155424077 -1.4393149465048247
403 1.6248588576025658 -3.3601100351045643 0.24445414123059972
603 2.748804145897104 -0.9340124650452473 -2.7857376986773974
364 0.9911853288312232 1.5016859459694816 3.160259342023325
564 -1.0088789200523316 -1.2207913659409946 0.5504301209905547
583 -1.4724598838967848 -0.7178227023762275 -1.5307109648811275
584 1.0141322512965698 -1.7673196507862767 -0.8961582882095829
803 4.617233255551811 -0.5654548281550507 0.1160141393243919
764 -0.9800275405841532 -1.5484023547888301 -1.6270263756149943
783 1.7249918003934916 2.5812984536738646 -2.161389963194132
784 3.067952229573271 1.7433136360329062 2.5464888809004176
983 1.886453557080108 1.0516284603326649 2.225329707081715
984 -0.30276009320928626 2.293963303894572 1.3705027261562517
1003 1.9028420321875337 1.914629430078562 -3.040739832014561
1203 3.2196721895426936 -0.5990669872151368 2.7063914867294683
964 1.1047931806215385 0.19869989731780593 0.48198008975158635
1164 -2.4810985545913082 -1.4792213495473807 2.2274554175560675
1183 1.6949323975054245 -2.8976947874169947 -0.06668009862939009
1184 -1.4447956454657824 -1.0897510090210039 -0.7758473812998898
1383 3.4114985732625356 -0.17100599712680767 -1.3988533262542808
1384 3.8647097038619473 -0.4221456823531805 -1.0077064627696903
1403 3.419599907707705 -3.155137403796737 3.7048546108409304
1603 3.9015137771919814 -3.0098449968393246 0.7062623597499105
1364 -0.968410305444442 2.2009089973294667 -3.58044286136925
1564 -0.17939521968517308 0.3297262432048007 5.1725383974949715
1583 2.728248228816542 -2.750188940150658 -0.9255439009920624
1584 -3.0354438683394345 -0.7066014789910977 -2.9285065682284146
1803 7.367442207164545 3.2871830208260335 2.769903073986433
1764 1.0285981110415876 -1.4953545501360883 -4.463047797227335
1783 -1.06860132436689 0.9201776689657014 -0.33165161700072426
1784 0.4809415089283033 -2.477635234239785 -3.7819596910698485
1983 0.6952760048118768 0.4837423175748937 -1.6430170018620005
1984 3.2796428851919606 -0.8861569387009517 3.257199991344645
3 2.085411377250631 -0.041304280728516454 -0.5865867206867148
183 -1.0127282887544082 4.934684343083284 -0.1789346070143395
1964 -1.3685632907269545 -0.1360377878401044 4.241478791060799
26 -3.771112085059849 -3.067743545458902 1.4746861827157078
6 -0.8627371153012563 0.4259935574608735 -2.3373461544004157
245 -3.1845294170996863 0.8570348444410182 3.776273485441469
206 -1.9265736743983213 1.2449252456527768 -2.113574322865413
225 1.8933076971075098 5.469093018330149 1.3441690282513181
226 -2.631112779800032 -2.9057081655668777 2.589250178609744
425 3.1227003561293603 1.2767357481684023 0.6715876534007288
426 -0.8342613067935425 -4.913830778620936 1.7202736893721493
445 0.6662082652642193 -1.9218273433448838 4.399559600693288
406 -0.0953216142795914 2.469002739299028 -0.9039670993997169
606 1.0082190866031115 0.24118097029485697 1.5940110926341724
625 -0.723286598110932 -2.270611970780012 3.5182775068692047
626 -1.0758496686261023 -0.38594824014793416 -0.8852233289233922
645 -3.4035674015492767 0.9089179980590626 0.9586218094138553
845 -1.9372369931169178 1.8335422649744493 -1.9079711819795038
806 -0.7151295869050308 0.42533113965788194 -0.43805390786383436
825 -2.564992875340826 -0.8564544868824931 3.307832027834834
826 -2.845073928631762 -3.922641152406078 -0.34574807429255
1025 -1.259683699837897 0.8641767953369772 -0.6174610555269239
1026 4.446658526025141 0.858091325786556 -4.363316836820183
1006 2.576563663393477 -0.6125479652413384 0.9334303026866616
1045 1.5072433552952542 0.9419199350970929 0.03457229190809243
1245 4.499470209226536 3.008759784238495 -2.6262919577042005
1206 5.012209797086772 -1.7476030340466062 -5.403767675149768
1225 -3.936953157603218 1.5437020500343128 -2.075180696163479
1226 -1.1430207569784514 0.2703354766968984 -0.1333739029260905
1425 0.5736090549011011 0.9811835187502841 6.341460226851342
1426 2.379056512723254 -1.2685857680233659 -0.16954422184454762
1445 0.19701238442736935 2.683630022009955 -0.879715801878045
1406 4.554072324724218 -0.4633769697699866 3.1762429306877187
1606 -1.2111424289288077 3.074029699438949 1.2281284004254864
1625 -1.392861251128557 -0.5027388416499701 0.655068920934913
1626 0.992485598453531 -1.7555874996581566 1.4483343939326863
1645 -1.3194847303144208 -1.3430188616733005 -0.8794143847083441
1845 1.0077473796671128 0.13322681217156404 -1.4653319763038246
25 -0.9441381075658735 -3.326819271339344 -0.8087567338851446
1806 -0.27028790307012457 -1.3211535662113074 0.31307131402447924
1825 -0.14441300947554805 -1.2206131425024649 -3.0931579931232704
1826 -1.7894442569569728 0.43225013982297605 0.02256998661392211
45 1.1425508519068663 -1.62882343769703 -0.4812424560911195
46 2.3344383615043744 0.4865079947774489 -0.5030462420570745
66 3.142276597065963 2.4948091713509295 -3.3018151560731526
265 -2.3109459303611586 -1.5529866585302494 0.6780037854826061
266 -1.1855173962061647 -0.26815501796573626 0.3995633977477187
246 1.901556798957445 -1.861521139484764 -3.7343452825686176
285 -2.4155873239181096 4.406697161680577 -1.1587558108809415
485 1.0178429604352786 -1.5427016074557904 1.8930033421943242
446 -0.4372664567192398 0.5546817457227644 0.2056835022449031
465 -1.3937938552899416 -2.9085324136399846 -1.563776763318622
466 4.371759024620219 -0.34984617221883957 0.5343376712878852
665 2.1259173366228135 -0.3680160314846747 -3.611333614333218
666 -2.9285214798557084 -0.3487079582882846 0.8696232897586869
685 2.3725229393498357 -5.91409251868791 -3.639311163296306
646 -0.6581981047738142 2.092252575402171 -1.2939163329284782
846 -0.9292480343416066 -0.5189542950078041 -0.5900998758598331
865 -2.0058182698017593 2.7562246977073652 1.5480771301700134
866 -1.547659210609712 1.810865380152112 2.9551682406942192
885 6.778704664917213 -0.18226157200389115 -0.19009346048560677
1085 -3.098193936452448 -0.10383049373858079 2.5919911200233092
1046 1.0469449884504765 -1.6372800374937244 -0.8132783300758518
1065 -4.6686036169595 0.9515915168064181 1.0052186903098914
1066 2.357542060439775 0.19811669069238405 -0.5496611988005408
1265 3.4143395490883166 3.7780307879972734 -0.9249484165880739
1266 -1.7496159624035146 1.3461202213317986 0.5629390066646978
1246 -3.5921098422204216 4.216779703027293 -3.8091285617461392
1285 1.923004031434293 0.493872095844408 -2.168321261714087
1446 -4.4762890538204045 -2.201759474458149 -0.07525176201978508
1465 0.020447566521467467 -1.3044229597178598 4.390563694266013
1466 1.3825744287239088 -1.8245298770256093 1.7587241173407249
1665 1.3113591110615288 3.5720256992077135 -4.858324829925427
1666 1.817473328919316 1.7391504108134983 0.8715423218613625
1485 -1.40148405308914 -0.2814417791489982 2.8053432036045733
1685 1.5376155008924042 -1.436785363719881 0.7443845134176594
1646 -0.9186355368535716 -3.387952606809696 -1.7619137098382613
1846 2.458604729381409 -0.3513058267321667 0.996974216985788
1865 1.014599047678916 -1.9480043166168919 0.4747394276412627
1866 1.9778160779165193 5.343077874651686 0.14538282167567537
85 -1.8135264625216496 1.0305812447771978 0.3125651180788048
1885 -0.43002114604440034 -2.404122536132722 -1.8887631246742609
65 -2.828868289369644 -3.1339037802504057 1.8003857660427154
86 0.3755776746725368 -0.7671288673058193 0.2743757013336592
106 3.5993810369259447 0.7264471592616399 2.5048733876567533
325 -0.698398406563152 -1.1584146836365952 -0.9597902765411352
286 0.3157471733794787 -0.9344090306532195 0.2367204913152511
305 -0.9456692240115265 -0.5058203783921107 3.7940234682240277
306 -0.9364877395738701 -0.7661759818539319 -0.22134917886101307
505 3.391652654363362 -0.39389671510777474 2.730154231961653
506 -1.007791421465349 -0.02470796787865526 -3.9283226645280314
486 -1.828027521671107 -1.0891822244358025 -2.395072614444893
525 1.6976895956842786 0.9814145071145691 0.06789178965677183
725 -3.5503514323013965 -1.611891382622195 -0.04897162453196644
686 1.3761677586150591 -3.472048895944575 -0.5920274550474706
705 -1.2176927645686435 -3.188446263968511 2.4040302520189774
706 2.1608609429449612 3.616439689559013 -2.6902886305252194
905 1.2292894834614925 -1.5876626237216562 -1.9382689147413983
906 4.582241900192042 0.5092793463312765 2.291744237700664
925 1.974397021204043 0.22774011523190776 -2.494157730286103
886 -3.9823616219624154 1.0870237313866882 -2.393139073532207
1086 0.9647773609491362 0.7109902908502946 -1.8823332067053122
1105 -0.5513590055268706 1.7459709031544024 0.8454378944365464
1106 3.0413930606198067 4.905763135973711 0.2633181855691219
1125 -3.3441979910049002 1.3158497179941713 1.570524635770011
1325 -3.648926597905002 -1.4816959369847333 0.4881462187235785
1286 0.11958384821397919 0.6834036050194451 -2.43092026120949
1305 -2.124576404982698 -0.4422217012015011 3.018733074346692
1306 -1.6799225322176126 2.9573027568002663 -2.7566866500084704
1505 -0.44206193806809563 5.274685726489976 -1.7000957119591749
1506 3.1288563223711985 -1.049646901890037 0.18714981278284287
1525 1.20892892573398 1.9536073425660618 3.4815585867554506
1486 3.671691134017384 1.4999546931826577 -0.3412466733888896
1686 1.2965064355851368 3.782234763887037 1.7918873916426692
1705 3.0040963346446796 0.22217616621999006 -2.5177076899554898
1706 -3.665462964493157 3.8711024118869437 -0.7497707672737057
1905 0.3858769438217057 -1.7344954684191527 0.6095589822632116
1906 1.2118819388508453 -2.4702114209087283 -4.015035993528644
1725 -0.5318515490746926 1.8178812380659264 1.8970904794812873
1925 -1.2869226769254771 1.1534791861002274 2.8077256937999024
105 1.4528704255608411 0.8317263568373069 3.505187898609328
1886 -2.0740018385056547 -2.914621558984615 -0.21195847785659316
125 0.5292505125785926 -5.153251925820586 -3.2502413931073835
146 -6.127614673939543 0.3114766979957457 -0.4803149914765749
126 0.6626578297371132 0.294631825718838 -1.6240698016361363
326 -2.740423278937837 2.4115443880274334 0.9698714506518789
345 4.840277662479868 1.483619584989575 2.078134875396852
346 -3.042448130644742 0.3125985985335293 -1.3372182999255706
365 -1.076259883404524 -1.4299803063076182 1.9255405727209776
565 1.3159222773160741 -4.008201584788776 2.500321941619565
526 -4.581437340062721 1.2266946243278702 0.7266103841204449
545 -2.3684752608474677 -1.9878043157563434 1.926038068589044
546 1.359753696214984 -3.352694414091158 -1.2536491661588491
745 3.149915855352564 1.700403068223554 -5.959193479044501
746 -1.6670815836868458 -0.5986391145727029 0.31936255147848785
765 2.773843614867607 0.9443560301386558 -0.16975772967584263
726 3.3164916029725466 0.9825314013872684 -2.3693832804863266
926 -0.16745110103258337 -2.8638443249168697 0.6805643189313857
945 -0.2311578180564195 -0.5257966654274118 1.2075698057392776
946 3.788947420167394 -0.5085609143647201 -1.5557596747798157
1145 -2.393022852369997 -1.9305224247351134 -1.602014833877208
1146 -2.031128117614995 -0.1505101983604188 0.5527403487933195
965 3.179039198750791 -0.9897543242533093 0.18348454718129192
1165 2.690137469411756 -0.9023648103530866 -1.6640802624551712
1126 -0.4680982584106972 0.3079023484900096 1.8779898985535675
1326 -2.5837965503214426 1.9740227067448681 1.488805689897725
1345 -0.5540385010107666 -0.14973148549091359 -0.651185464430092
1346 4.022751109211592 -0.20277958867223272 -1.282812206659203
1365 1.8529652939339083 3.1172935114998865 0.2923616716102817
1565 -1.5312052026951122 0.7371998820115142 -2.456960556938174
1526 -1.116703313957771 -0.15944310694330013 -2.109562595195278
1545 -0.36945484324244865 0.664667677175831 1.611464360486138
1546 -1.7171830006698883 -0.36109531607452894 0.724105264440608
1745 -2.3157886690052165 -3.0386381032518996 2.020145769608714
1746 0.011077622174968788 0.6606367256976909 -4.007626832580046
1765 -1.8992798661753838 -0.7228388019937618 -0.7818695679076495
145 -1.9710718552099287 -1.1271004633425838 2.3683433377595695
1726 2.0278800026995074 -1.1768783784200105 1.4083602113957876
1926 -3.469741169089429 4.631753961240787 -2.642420795503833
1945 -1.5482788378147554 2.6643311443449944 -1.6627417930807213
1946 -2.7256660007565854 0.49321016484735597 1.313713426701452
165 2.888709440966258 0.8157419864711548 2.256326974774368
1965 -1.4982845570746084 -0.6951723843244704 -1.6896616845760823
205 -0.36673822824581487 0.8655952570698431 0.7235455966822281
166 -1.9755925274332258 4.198903639096863 3.8467043276449178
186 4.106023649763356 3.2937054241657284 -1.2746676755978628
385 1.3656869410418997 -0.5469572232463455 0.27781664269395145
386 1.671651005976124 -1.4829369498832512 -3.448675163066645
405 1.2469748697058738 1.2722462965726278 -4.086622537087215
605 0.5015102018383013 -1.7880559337342845 -0.28594796588325816
366 -3.2634766498035357 3.4001973397330154 1.545105683338453
566 -2.4160678981656507 -2.359506262275353 -0.05181326884378767
585 4.789947334915634 -0.031912031041610465 1.417720558096273
586 -2.5437375015503743 -0.06692902495377581 -0.49036949983907413
805 2.294908280869669 -2.017652563881335 0.2282442829399749
766 -3.774251307861511 0.5026950469340947 3.601275207664722
785 -3.621577332506447 -2.6475892002908625 -3.3515854309801587
786 2.3824910460262325 1.436836483977254 0.615106018080097
985 0.828308967017176 -0.5014671208421243 -1.6047999048408832
986 -0.8516138900826973 -0.08326207293567442 -2.6243537428239163
1005 4.188871135090401 -0.6008741527173255 2.360148803187728
1205 -1.494031625724815 0.5870628546456087 -0.09624621247355825
966 -0.060289888026810776 -1.1620583427940427 -3.9829151936725795
1166 0.36274083027948584 0.9142803374019022 -1.837216048513136
1185 -0.07511416545244973 -3.738297923501764 2.512600107668988
1186 0.9550750251595173 1.999868550035169 -1.2131590443335531
1385 -0.051944435147995426 3.3108875101912925 -0.5042998624807784
1386 -2.282730545284171 0.3876350443577385 0.7744661422639136
1405 0.3284250343621446 -1.8740525172645237 0.30520622525587965
1605 3.05212373011698 0.6776850483542418 -2.161775901992269
1366 0.5136373359091523 -2.089629079210397 1.0191376151579774
1566 0.46134569888570554 1.915337889947048 1.6994957673178739
1585 3.0752928648608573 -1.4533908580633152 3.4747890569459
1586 2.514511602720479 2.5283154072155343 -1.1128559738149142
1805 0.4168952894414513 -0.28818590086006896 3.604198228453596
1766 0.531580984136369 4.181643039833415 -0.8353538765906858
1785 1.0665559632308015 -0.024118108007778753 2.6614027038997197
1786 -1.3452773092923374 -2.6916896683542446 -0.4325685027421842
1985 1.288124953906491 -4.002513882893232 4.010623792694045
1986 -0.17352743298664403 -0.2969918588774715 -0.7974790730165978
5 2.3613645731374637 -2.369412039634868 -1.0543899215732055
185 1.3955686871102007 3.095043540516392 -0.6609974469289281
1966 3.1701490740363845 -2.372922967745058 2.145769032234133
28 -3.526197074768061 0.4971097015510277 1.5052542462233074
8 -2.5087740219236085 -4.193249190534663 -2.5699890178631
247 -2.7946175223488856 -3.0040336210798513 1.037249105577121
208 -2.320638027349104 2.021302550443224 -0.8951826778109531
227 -1.15975142422711 -1.2808962961875543 2.068563707156964
228 3.948056821405115 0.23291613370484626 2.352153641872315
427 1.0644858721698713 0.13317935099681275 0.9774455276895254
428 1.5166433604527783 -1.4236410493513771 3.8356996712524687
447 -2.130830316075055 -0.036484164096795994 -3.223725028040425
408 1.7315390200075014 6.592313053788315 2.8373162077561407
608 1.3880003698935521 0.9080914376472495 1.1715617858954077
627 -0.005579969821484808 1.3740267042499008 -3.0539670300769437
628 1.487387289045123 2.9053679131436656 1.672935211063192
647 0.41013983721264746 -0.7830173967175723 1.3455865904948257
847 -1.0893061658437035 0.3566277002660888 -1.5560200227864902
808 1.5797015016983769 -1.7201521801322555 1.5295742162395094
827 0.9493685857700989 -0.10221349553470849 3.9598340322016687
828 -5.815499354458097 -3.7268846543135608 -1.2786428687445555
1027 -3.298154497448718 -2.3596818170368237 -3.0592029673604477
1028 -2.2053677250873545 1.2105226479944187 3.9546472991498542
1008 -3.806569693546648 -0.2676051107827604 2.294994675579951
1047 -0.9092427864767789 0.02414500782807777 1.420874077145568
1247 4.119730754281541 -1.568808461334167 -1.5766259223314623
1208 -4.4626384339246385 -0.987808805106899 -0.5618053431009727
1227 1.426489196260504 3.8548751971863675 1.8298044689107524
1228 2.497253395101281 0.2839434507508836 0.17317215461133
1427 -1.6933178114652199 2.3575827048506377 0.5557189542814527
1428 0.7035906575347269 -0.21950773516023878 0.493327513879736
1447 0.3791719873793603 4.323120818897455 2.1573787164613654
1408 -1.66171958912193 2.8561935273011585 2.618861693232037
1608 0.9874915259782248 -0.9894555884710298 0.01062508575773295
1627 0.4359875463450341 2.306443105396566 -3.0476830328094358
1628 1.0116504538504083 1.677028914343523 -1.702795512473833
1647 -0.7775300866676158 -2.7499341512458537 0.3204058795570891
1847 -0.7675101365776817 -0.7442190698951391 -3.096409466604599
27 -0.5694704786839592 2.0747549129111222 -1.0857086101277023
1808 0.24786037274436054 6.096724062963615 -0.08315875368307848
1827 -1.2632872255466683 3.325371022963313 -3.021068980721526
1828 0.8361686574748043 -3.9111341611924657 1.3299478011488723
47 -0.05101497217614899 -0.7327786765929764 -0.41371340467139583
48 -2.2481684020859776 -3.1382031253364087 -0.03914567156044769
68 1.0605062360722333 -3.674639031763323 1.1312338800686497
267 -1.8693839606222327 -6.098687433208314 -1.540466202183071
268 -1.4028780217406684 2.7040779551680862 0.9494312953453037
248 1.3293779717000629 1.202041115248466 -2.178898688470345
287 -0.5333930539021279 1.7793489319966793 1.774983324294607
487 -0.12134878542191961 1.8795181724341805 0.43306765845855
448 -0.8921059648640148 0.1056459562812575 -0.06086662466637351
467 -1.269224077225549 3.352808643448883 4.167629231291376
468 1.9931967107042552 -0.2633463491507894 -1.5634183363317309
667 -1.1120125864630563 0.6617066842824324 -1.0868569192536317
668 1.8864029490210994 -2.455291779796601 2.28402255012084
687 3.5681024872062794 -0.6165974987302476 0.2701780838857263
648 -0.9409545372136893 -1.278377538733801 3.1433811285407565
848 1.816838886529551 1.5384710586907946 1.8678204166626853
867 0.5738135884612414 -1.997425224545944 -1.9200292556911758
868 -0.8014284111555624 1.2877661592750262 -0.9122442149677862
887 0.31606071407520914 -1.4627869847950281 -0.7954350203194227
1087 -2.712839373448909 -0.41743848813382056 -0.6829425568710049
1048 -0.0016443134599796352 -1.757322938322429 -1.3624233508277355
1067 1.585249392856203 -1.2228678236992032 -1.9043806420147553
1068 2.5822722179810045 0.7685604740085121 0.5006236936988019
1267 3.8946402640825997 5.149656563950059 1.9870451719190552
1268 -0.4089591077091099 -0.6045966038879157 2.7181081056543013
1248 -0.7380756657894323 -1.6859181284905445 0.9469293933696863
1287 1.4009280415693377 0.149373027512375 0.7679533416264933
1448 1.1829660442235839 0.3978626611656974 -3.4173492997945347
1467 1.2643522747975184 -0.7345866597861088 -0.18583438996017462
1468 -2.0651740079212497 0.9820160855815488 -2.3931831678100948
1667 1.8093261489943817 3.0043834756728467 -1.6962506540457414
1668 1.5965748608892576 -1.9714353693825395 1.1721853922473773
1487 -4.3192022681142825 4.324435302871163 1.5542217076797376
1687 -0.7782689303804645 0.29576986699376023 0.035029375299346806
1648 2.8984254579806223 -1.145842443001601 -1.4511239108166305
1848 -1.2671768625614102 3.7916765307538243 -1.977519087154313
1867 -1.9847127230095416 2.7065588750839074 2.0369913171333796
1868 -2.787925860939421 -0.4217965695878309 -0.28067071453773856
87 -3.254185779969944 2.911765184694887 -3.3431154808408508
1887 -0.11145074878678327 -1.2497203722976529 2.064034958794392
67 3.1906679994117897 1.350703504555379 0.3570035376075842
88 -5.412107527097016 -0.727106854540502 -2.1969165298938473
108 1.4224092635691117 -0.2455842262866685 -3.955970527380879
327 -0.24885840076255691 1.9693294210680712 -0.37692149161073374
288 1.6666488572690084 -0.036950884269749185 4.149966036216358
307 -3.066190342840564 -2.9483557352455496 -1.0467160184603561
308 -1.1410283032639523 3.9313443000627353 -0.17421535786582618
507 -1.231162765513218 2.5606840038532126 -0.2691724439852749
508 -2.0943206289445353 2.2239484167726595 1.6043501283412804
488 2.8094244981738856 0.5224166326786827 2.1815221372756657
527 2.8390582380906704 -0.17070413080034405 1.83908446682082
727 4.111505882290175 -0.9012554480224441 -0.5774851102540112
688 0.7345509712505229 2.886015750320223 3.3069973519955504
707 0.7011189742778837 2.8563147142376546 0.18796511761544202
708 -0.9069825493922612 0.9411369607726323 -1.139586026531428
907 -1.9210216009043675 -4.558478580823717 -3.7735293504372063
908 3.1741824882735914 2.417225341280876 -2.775476310034579
927 -1.5876565891951027 4.291869495852807 4.294976659182384
888 0.8806338305682312 1.2134346733475965 1.4538532869580365
1088 0.5322710764597832 -0.35187126164397836 0.4754074043941485
1107 1.3817382958595228 -1.170997382333841 0.48685740235468894
1108 2.5995576546157544 -1.0981089653150513 2.506356544683587
1127 1.3125717936214385 0.9575308674406128 -2.2149864439155174
1327 0.8503542483066447 -3.1742567906885673 -6.945703835062309
1288 -1.1481609344349677 1.4492945994547344 -0.24652516169826882
1307 -3.732397583919886 2.803751404964389 2.549463891340855
1308 -1.5803058664241916 2.5853785050309352 -1.240588566284135
1507 -5.154312619433564 -1.1771410863995222 3.0844141278653945
1508 2.5451994984010677 1.8999435227388426 2.1514688892532563
1527 2.397261562502351 0.2295584447971714 -0.9574723689529282
1488 2.213061841267118 0.07359955498308841 2.906102012372399
1688 -1.7843714431416293 1.005366534286702 -2.7951832477415444
1707 -0.2241496944924824 -0.302107678981583 -1.3811301354565202
1708 0.4597715332051558 1.686657376783331 -3.629717772353021
1907 2.270864222479603 -1.7693334576012099 0.9091427084841729
1908 0.29992292170166646 0.6649808479265382 1.7977690242077016
1727 -3.7486516750612466 -2.362376210004394 -4.592616550504448
1927 0.696077853189444 -0.8942443543365043 2.6867205885919354
107 0.06847806885555353 -2.9613341313168324 3.8274101160380343
1888 -1.285270111182717 -2.5262594619043868 -0.7311194068978161
127 -3.544205017328285 6.0057974276794335 4.900780118280132
148 2.1761114114159685 -1.763571634300825 4.1539393482044655
128 -0.09933336229483898 -0.6928544050053494 5.536557501636799
328 3.6260549434069724 1.954150147745355 -1.0523722702541234
347 4.720879348342129 1.3117410533642244 3.048787801030183
348 -2.4064290169847964 0.7480393035239342 -0.40276173215833494
367 1.3936080001006255 1.9987641597045986 0.9611035837821509
567 0.3000197324535767 0.3926023405482636 -0.9242521687423595
528 1.2162383557806709 1.6832514058727464 -2.8018692768227482
547 2.2802224956765795 0.04473632363804172 1.0352890667262402
548 3.3318677347291925 0.21213453745760633 3.6079400907928227
747 -4.295572599715944 1.414188959213678 0.06448072767937073
748 -3.427974744269585 1.9320797852194298 -1.098793620826264
767 -2.7059697411241572 -0.1433645892180965 -2.0497626993496656
728 -0.7374644548523981 -1.4113175965045481 -1.6452203001822132
928 -1.8363974813807025 2.0462195487599653 1.4806999104488017
947 -0.09592148265334663 3.405617572603638 -0.9906202215809145
948 -0.808413821989327 0.27917522478565243 -1.992249001411125
1147 -3.384661294646724 2.9712730141794 1.6736426801976376
1148 -0.5439914945734409 -1.3062917339158358 -3.277509741906787
967 -1.3925600085993364 0.1222488698485084 -0.23198587911250082
1167 -2.472954863094952 -4.865649800961297 -2.8306624621319125
1128 2.670965834279918 -2.866174586574454 -0.5273106213586323
1328 -1.7331696199602218 1.214015931202522 3.368454279551561
1347 -0.0733766004119223 -0.19753016180043761 -0.7404284899044263
1348 -0.11098500801362894 1.7845851234841672 -2.194728870403169
1367 -0.40505892090595763 1.8412776214220103 0.6623063088353365
1567 1.965754269385879 -0.12696010777460465 -1.802202431108637
1528 -0.7609765199968137 -3.604421992929266 -2.928775625251303
1547 -1.2891002458043106 -8.174709314777665 0.42662926469231277
1548 3.29811999255764 -0.6067408504874585 -0.6749203752386499
1747 0.4013598434094775 3.9485041004282255 -3.6975768144197416
1748 -1.4800413410054825 -1.7625419832868365 -0.5012409088237698
1767 1.934480663050471 -1.4387616565262429 -2.4706295360332526
147 -0.014882658838123777 -2.0065930354522363 1.2571265535102856
1728 -0.6520869732390598 -2.624087383495762 -2.3341712966828196
1928 0.1754877804597945 6.00963542071586 -2.8614240446203136
1947 -2.287961405690487 0.056954159304074145 -0.18285086365221093
1948 1.737496213994427 -0.845050995317347 0.3304917161890127
167 -1.5229698677407453 5.495953287906766 -3.5834017654380985
1967 2.9516172543987067 1.3551011042311603 -2.1577990174239807
207 -2.138703723396352 -0.01459279479141048 0.9930012061793769
168 2.188499864036209 -3.1816173777213947 0.2613982728496153
188 5.934496277164977 -1.2675462970131777 -2.3027769979134964
387 1.8107163301500282 -2.0726026749361033 2.7826026508245554
388 3.4350697508515062 3.9595770518260633 2.6022497805076306
407 -3.748314805045313 4.635270287021626 -1.3356449567025568
607 -0.693017043294631 2.203785367016 -1.6591395980272645
368 2.4457753126616937 1.982703087257613 2.4375502697733156
568 -0.22293037361294296 0.03340836375242877 2.9844587968242284
587 -0.466738222646117 0.3523426897275594 -1.349225090233722
588 3.409806863427361 1.5411883828582054 0.44073110561794715
807 -1.562994370325269 0.6290409588933701 1.2986143163497492
768 2.16331151743251 0.9023782157850213 -2.5798943164770183
787 0.025544073186656517 -1.5169765983307408 -3.8692305940537666
788 -0.37830131114033483 1.8342063582723904 0.15939516974476106
987 0.28161492366721863 1.0449648162721437 3.7672748880309834
988 -0.029257409622553524 3.2224288684084255 -3.1381668407526235
1007 1.6643915353525627 -4.13492349283117 0.9137813493988278
1207 5.248208420973074 -0.042834018228315056 1.0419058680664837
968 -0.848950889625602 -2.3423122504501954 0.20287383306387552
1168 1.7504359194655825 -0.2776725291398829 0.7350432555169116
1187 -3.4664347194252056 -2.1119179870187796 2.5175879941786317
1188 -6.808589030352378 0.12353506529708135 0.6614370418792086
1387 2.409444916742617 -1.0021036771447893 -2.4234472591080127
1388 -1.2425284499129934 1.436592028783071 0.12673713799730194
1407 -0.1697115103228837 -3.8971160494819825 4.10329153967432
1607 0.5171699796224721 1.3877600672010584 3.8916621719108253
1368 0.5416592501794696 0.9596726005612654 -2.4885643269558115
1568 -1.7488992394052758 2.446471064676167 -1.77587431803704
1587 -0.5695259933426894 -3.1409396381264325 -1.1643543148832989
1588 1.6234685913103049 -1.3381441619599699 -0.7150322663204314
1807 2.8848868538266266 1.7515301425165264 -1.5934102783991804
1768 -4.087348588043071 -1.652554486699333 -0.06980048114358366
1787 -2.2186285820108607 -2.461600725736578 3.0548853093500203
1788 0.6399742856940305 0.6324248793805572 0.929641753871893
1987 -6.7198136166402795 0.4472468444298502 0.34883723397482896
1988 0.29588117088819926 2.1974906689146794 -1.1584333498700838
7 -0.8384115958662981 -0.3072317087264609 0.17895437681247384
187 -0.7304951021053746 -2.281886371090545 -4.153446786813602
1968 -0.3498372686715973 -0.7389595125533235 0.43103684983025836
30 -0.02560423324677816 1.5901248228524458 -2.171328272885572
10 -0.9315896015621452 -0.6262416268565246 -3.5153243520112665
249 0.4519557308934824 -0.9348331954217687 0.021350530061251816
251 3.32295993979727 -2.591303587892293 2.218693801842267
210 -2.015893963050611 2.265659885295122 3.7978740164638145
229 0.25390673295252475 -0.10951727666762046 1.7119087425287618
230 0.12550941218212378 2.3424828487299103 -0.15648263970589232
429 1.0436213086010713 -0.5737021348038559 0.3321852698838102
430 1.1283795028172587 2.0018078099106655 -2.9334798525748162
449 1.5949042077331956 -0.077489339452809 6.36114488042504
231 0.10632048094612757 3.045172081152435 2.5322636941736842
431 -2.036621762387098 1.1677126334477754 2.8451630228966103
451 3.033836094585354 -3.2723097911900614 3.90567018261506
410 2.5865436252635376 0.9614918640534035 -4.370729730496769
610 -1.7930547582874306 1.2371301740341425 0.6973381082554384
629 0.32350042871944623 -1.4771138360640501 3.2301200194372677
630 0.6226374141541006 -3.192755253614228 0.27311767224835276
649 3.3341831766410768 5.252124825533487 2.6516433327549316
849 -1.3306804184539076 -0.6751183336314646 1.3098140478589824
631 2.617654616974347 1.329309324247842 -4.8858233483623605
651 0.17207117836386812 -0.1809223359580324 1.089928146688313
851 -0.113365584864525 -0.20048290000963498 1.6090412691919787
810 -1.743691749602593 0.8685973322258798 3.976724377398992
829 1.5224310507855094 1.00065009828668 -1.7904205802186641
830 4.396402812610256 7.263619319346009 2.30077421720803
1029 -0.7589301020592107 -1.096974617144994 -0.3213671674523734
1030 -4.586958544714697 4.447800069648345 0.9630405897263513
1010 -0.25572897037435466 -1.3864116349986282 -0.12097639153098956
1049 0.5465210125174516 1.4874650216228098 -1.3394603590916092
1249 -0.3614667886830585 0.39509047436452605 -1.8485806383184347
831 4.2189077241329676 -2.3875282967775737 -5.596476489787436
1031 -0.3430646423235275 -0.3678227010245438 -1.9520259638139432
1051 -2.97673568002691 -0.738997619813542 1.0958241547495013
1251 0.1931320980476867 2.3656628922741643 -4.499036487012561
1210 -1.1190571999456405 -2.2171452869600348 -2.9573210611893814
1229 0.9205343389896109 2.7604408569200394 0.5961547707927614
1230 6.1479773067125 -2.3169404251158694 0.35926936321067404
1429 0.38351576124173553 1.6866512513512464 -0.6843087157508009
1430 0.8304956151721724 5.382951472527366 0.7074899944920803
1449 1.0135121071475361 -1.16795304089002 -0.47392927212411884
1231 1.4473108341528416 -0.7278675695681901 -1.009764482138045
1431 -1.23849508543016 -2.9966691939770334 1.7378148499827877
1451 0.7170558624465704 -3.2957181976539442 -0.9791436476212104
1410 1.4968800514805585 -1.868129101290024 -3.9619640636287077
1610 3.112694054403865 0.35490682120048517 2.306071890792222
1629 -1.8013762688238082 -1.3725203494302232 0.0064591775216028885
1630 0.8429183592263296 -1.7846900147072622 3.694130565419551
1649 3.75824476460996 0.3415617294865565 -0.13611969835443444
1849 0.932558423698787 0.12451182384109417 -2.009803012781566
1631 -2.044829976844509 -2.438672282550457 -0.025601766854484155
1651 -5.052366162486008 0.5899643338453968 0.5447238743568654
1851 1.7741855572063823 0.730328840686207 -3.142155518198696
29 1.04532482245296 -1.3636203292586104 1.5043616890610667
1810 -1.5406134078271412 -1.471104966287682 2.4614527765501877
1829 0.07999665969164853 -3.685193926719398 -4.736713520735683
1830 1.576568813522005 0.45215908634794955 0.9005543677422024
49 0.40407144889496566 -3.7335190547557384 1.553012073651017
31 2.451906890012725 5.49709860510074 1.5506230253507816
1831 -5.043827801061115 -0.02981481229899162 2.646297106318836
51 -1.1628831759790852 3.982303279317581 -0.2755262420680832
50 1.8256587947654248 -0.016424613569809673 -0.7666713666688486
70 -0.8240893174906558 3.7156964286539695 -0.655832355586331
269 -4.20168873353072 -1.8648002662738783 -0.4668225390402817
270 -1.5294406133228853 1.0888158519228444 0.9816139490058505
250 -3.8783942768461226 2.980047151054193 0.7433800354663577
289 4.0775462950699675 1.2973989315882108 -4.129106417316222
489 3.3978042236567267 1.2182755433326746 -3.982600225384081
271 -1.0200932543508714 -4.201984890529132 -0.6051875508030793
291 -0.8842662744007487 -3.9412768730054575 0.7198030990517247
491 0.09132302147064407 -1.050468089107293 -2.6080991075264186
450 -2.925868381742442 0.7652238873091335 -0.08308202417145392
469 -0.3366560544405232 2.3265741439124854 0.25027512241276106
470 0.5270065387154583 0.0672471656913678 -0.3720941481768562
669 2.47348148388038 0.4955785309719978 -1.1623602917863387
670 -0.6485039555719289 1.215388832884677 -1.3873215098782563
689 1.07394493454415 4.341170012211296 2.235315550754141
471 -1.2343239195143 1.6152257502495504 0.7343963036834292
671 1.2569598995096154 -0.946256313761036 2.009135502735403
691 2.513853290822541 1.0375789245197253 -1.800381627747375
650 1.2187497532790745 1.8924704618393202 -1.716815947377111
850 0.21530683877629977 0.6241306840184742 -2.3916349365590497
869 -1.571983749000574 -0.3431775650378128 3.683100778735683
870 -1.10404554412717 0.45025724009249524 -0.1514573872844357
889 3.6784103927404996 3.5330310491270636 2.75050172621792
1089 -0.25883701709711215 0.3091875889795372 0.05153675622424085
871 1.745140148610607 -0.16632914842848842 1.835489651562896
891 1.227555235162376 -3.931693287705915 -2.898254592371884
1091 -0.757975300986164 2.2196202829252734 4.162785475219475
1050 1.3070254624204962 0.309803019421319 -0.23368223119708156
1069 2.706667808569488 0.8232552843616813 1.640075582386307
1070 1.6291921220682823 -1.0494828937496128 0.30295729332498417
1269 1.8215187439222602 1.976979848699519 -2.7074011514317036
1270 -1.7696700233056177 -1.1017902501859633 -2.567874275628468
1250 -1.700431266853131 -1.6433601715692712 2.10790839320882
1289 -2.934721906355706 -1.2395072999813284 -0.742213620171909
1071 -0.0006434396648974728 -2.550406985534993 -0.8847330784410345
1271 -1.7135596159080304 -1.2193479907652902 0.31960347011443574
1291 2.103735939172226 0.8987768219817942 0.5469553819194867
1450 0.5223019736815372 1.1586298675513476 -4.111439074767918
1469 0.5347017193786392 -0.35618393065558673 1.1700565828286449
1470 -1.105194809491558 2.920572921742957 0.13727193814080865
1669 3.526258182210724 1.5258192115288365 1.8197914120692602
1670 2.312855310015293 3.658849588865237 2.70954818948657
1489 -3.284745616511781 -3.887232805829151 -1.798420668497954
1689 6.628899780320206 -0.32180062359808637 -2.086941711562958
1471 0.6304020133734397 -6.460584313951426 0.5830844958447093
1671 -0.2591336768402282 -2.5763528240313898 0.49655901449353645
1491 -1.0964089928942897 2.0850067188061363 -2.0571357182498398
1691 -0.6557755459231976 -1.5614724583170785 -0.8216713185934055
1650 1.632793686100219 1.695058984644521 -0.8866593052285069
1850 0.15427844436791222 -2.3965134343662955 -2.7384625802245606
1869 -1.498417120800993 -1.8589818325933303 -2.1110733528088326
1870 0.8550364287859618 3.1487513772135216 -2.4494835625765767
89 -0.16351094991075815 1.2728290141156808 -1.0499856590017091
1889 2.030513688097084 -5.29322481654199 0.5232466859241998
1871 0.08831095922133526 0.7836115663196146 1.2453512780092082
91 -0.45606852780429596 -2.198823010504837 -0.682701592711069
1891 -0.41046039204907014 1.2887417563039183 -3.4280059818883766
69 0.8888637801416156 -3.4775879450207574 -0.2068846258946409
71 2.992619091823514 -1.2844741710818637 -4.049177375016902
90 0.0010416583550477373 1.9723580174892148 1.2062166107179577
110 3.995629716784054 0.35812061041620896 -0.22759444294002776
329 -2.2161082620845627 -1.863871824807547 1.2022453960901105
331 3.665878774260133 3.5045282300260685 -1.0460616499796145
290 -2.1745174357326538 2.118397530816475 -2.6634941654446807
309 -6.142302024188411 2.705910454271948 3.7863168082935084
310 1.4266708902640195 -2.6953009210807646 -1.8316856247485145
509 0.8536899458287647 -1.361337037680833 -0.853667638605239
510 -1.0526078990821468 3.45740562731454 -8.31805593747679
490 -0.20501408132576743 0.6027202814783253 0.06273395000388025
529 0.6525094884042232 -4.605084621698124 -2.551401476271391
729 2.1800759403898704 -3.3611925452870803 0.4594323069087313
311 -1.117965388711936 -1.2715921335060723 -2.0876672192399255
511 -3.871717505282563 -2.0695770996281677 4.295582929149478
531 -0.30078287504117807 4.865985017369131 1.0284485481322636
731 -1.8879407339881995 -2.3393284286481886 0.14099322123104074
690 -1.2882841536685856 -3.1247411780235175 -0.05143378228074064
709 1.3714284781361752 -3.4144228666681733 -0.10466323194000517
710 -2.184431712250789 1.8384162932459378 4.456124087415947
909 -1.7140177725553205 0.5419431051596092 -0.04697065372832134
910 1.347029037711835 0.29258634834979647 -2.242531410362901
929 2.148901225636835 -1.9965707727763595 1.0780173358211427
711 0.23565382448965508 3.0711079070502953 5.5243202176286745
911 -1.2816705753070945 -2.7532929601761422 -1.5729317161514405
931 1.4733104123587677 0.4524311791125724 2.9996843801952506
890 -0.5652704850479366 1.371493241506716 1.6802817377422807
1090 0.21199266661700583 -1.5743376835728806 1.3051461613880506
1109 -2.629061670668059 -0.6961814951187364 -0.07158021689228952
1110 -1.567684815465744 1.5951358741159707 0.9708169413045774
1129 3.00873504103187 -0.6683318104201398 3.3799743953035115
1329 5.807155259386054 1.4076389348570624 -2.0359773396280283
1111 -0.3027604548174764 1.0775881711083444 3.9239513639742833
1131 -0.7637570741562377 -0.6334600590361071 5.637940495186953
1331 -1.1999420838069847 -2.910017637891973 -2.7594584796395987
1290 -1.6197581697102017 0.6662606157313532 -1.4157877719199223
1309 -0.6221608730086983 0.4945639223519553 0.6066690093612369
1310 -0.3218451875220493 0.9044039612288278 -2.051336158832476
1509 0.060362112306257334 0.009750305801101283 -0.2753519095400845
1510 4.292249134803419 1.0525334592611542 -2.295390774008146
1529 2.8022329019814336 4.6223591072305945 -2.089706431461217
1311 1.938733925362807 2.5691589311682113 0.366817131365602
1511 3.2780971343504532 -0.576700082078646 -3.042023929668766
1531 1.33154526052632 1.528348056462308 1.013470573528213
1490 1.8214151545394908 1.5395053310035272 0.5027273520935671
1690 2.785366126551547 0.8827614502535754 0.8245732431159828
1709 1.229081394042619 -3.3315836060411224 3.418109573723264
1710 -2.184030229835435 -0.9005450174550901 4.455023845970943
1909 -0.011644797200965732 -1.6579101569785102 0.5226679840837982
1910 -1.4634229899506614 -3.092488293735829 2.9070464542382024
1729 0.7795310402322122 3.2636045548164514 -1.5221039319534362
1929 -0.9589700469158412 -1.7653889526096074 -1.0682349736702839
1711 -0.39105919241378867 1.8789819881419183 -0.06626063960365906
1911 -1.390838818978123 -2.0643672686390198 -0.5969353201899465
1731 3.1047342338493142 -1.8490722613347146 -1.4972352068430748
1931 -2.236643459233057 -1.129702197199059 -0.9419384365258806
109 2.128269987529255 0.7253846534383067 4.866055615073893
1890 -3.097364610119785 -0.6771923721713364 -2.1721489353937757
129 -1.7418478944193627 2.566852218710533 0.10757252878571058
111 0.3877009958987228 0.7397537858395361 1.9174007768308332
131 -1.5162579473757434 0.5541265789074254 -3.8796062348707276
150 -2.9732355489968034 -0.5146764380537319 -2.578701464787892
130 1.1751811675824795 2.0010384133728807 -2.7129602172254903
330 3.4151611008152454 1.1931326273406915 -0.7662750108128883
349 0.06638083819702302 -3.090777372535066 2.324990795645319
350 -1.5902564340688627 -5.424681032206659 1.211530743588806
369 0.23221942081899394 2.842799435156504 -0.31615425759423516
569 1.6247763948323362 1.2760814569430636 -0.045648765210549294
351 0.5790664558756582 -2.3444338574717962 -0.5597066677703818
371 0.9660188547830901 0.932765661320492 4.14096283241079
571 -5.066630611332438 0.9109600503327826 -2.4485272521023353
530 -1.4846764299646025 -0.16758145978359737 -2.5495226251637013
549 0.4538965522436146 -0.04193168706790818 0.41099077529695177
550 -4.6763527256610375 -3.539546150984629 -2.7460232945526935
749 2.5725820785871654 -2.499112392629067 0.4166406278928467
750 0.4619595131049782 -2.944920781428643 1.7565821104128232
769 -2.3151164431101874 1.1666111088722748 2.3900963651499536
551 -0.7583900831170585 2.421803899235562 1.7717784439890796
751 -1.01094092307925 -1.2743783800065251 -0.7972541329582523
771 -0.7624904850448602 -1.4084602588832222 0.3968443323387345
730 1.98050778385173 1.4967873218803183 2.5162101221406026
930 -0.2197727433428127 2.19563093332986 1.1335106338387544
949 -3.1673793443208833 -0.3765729089473013 2.881921533861094
950 3.6883047979588626 1.6471322253004053 -1.6820043803325553
1149 2.087923643638411 1.2676075025142066 -1.6660457822860535
1150 -2.310571977397032 0.23119922370217805 -0.7445296514084466
969 2.749276843412749 2.3161738514885792 -1.7242903857157967
1169 -1.9547973407548427 0.6410222086291034 -1.9043527538519935
951 -1.720328287308218 -1.8361218133778883 0.18957345383592722
1151 2.374168802646589 -3.9070563834537495 -0.5011150739370299
971 2.6373476153807847 -2.1893288821448396 -3.4383241975302115
1171 -3.6788172211265673 -1.360707907186473 4.9603353768455625
1130 -0.3876467287615742 2.4463458496887998 -1.2906460809050895
1330 -2.599844634286863 -1.1191265897606357 0.767586371438849
1349 -1.2752756811893387 -0.5828267891808346 3.2083052371168206
1350 3.739460703520577 -0.3219898248645933 1.3114929666820836
1369 0.4009991367659123 -1.6819715739842103 -0.5745715972534945
1569 -2.0206574169191485 -2.655522036878908 2.0168218915814795
1351 -0.6484349384596609 1.2297187315435272 2.535682663969386
1371 0.5323823673062464 1.248608825300594 1.8798751257022892
1571 -0.5001147842939023 -0.7699441779510653 2.170620976201003
1530 0.68948624075226 3.4595429777485367 -5.0061405224008055
1549 3.0739321083636875 -2.400517414379968 0.3491405229294365
1550 2.227104974836723 -0.1295201354115847 2.4127599667096025
1749 2.705293252069118 0.9991858500370474 0.2782395248087574
1750 2.7963218149444935 -0.471667189914279 -0.5007947088914846
1769 1.3635287649987715 -3.3978667123219983 0.7200328852594197
1551 -2.4872989682556845 -1.7605469548714594 -0.4739299908674937
1751 -2.1598473560642604 4.193395278058262 -3.148294960508308
1771 7.173238602183443 0.353968896891174 -1.2351166386147485
149 -1.6760281814408986 3.662681970595452 0.2636154977754789
1730 2.2349686856727047 -0.4318119673354476 0.5464327876175546
1930 -3.0771633139830388 2.541067639463107 1.6025285859052434
1949 3.4176293818937404 -1.9972853396367685 2.1126961122330057
1950 0.468831474284839 1.013305888074051 1.6452707227553547
169 -0.4435272132608688 -2.1993315413346832 2.867780843885939
1969 4.284846905962348 -0.7628755023080611 -0.1762143369891046
151 -1.3121619079358557 1.3257756015959763 3.9550191463395197
1951 -2.293388411558739 -0.6190840054009207 -0.389254957107119
171 -2.7050244502979077 -1.4539606392960855 4.821269745563391
1971 -3.448192749950998 -1.4592172826185745 0.7606259566483874
209 -3.479450745975478 2.195513753604629 -2.042048874639217
170 4.90454750972056 -3.1710049765258272 -1.183001000577325
190 -3.3960484647366083 -6.461875898043185 -2.070416401267268
389 0.8088311830305187 -1.4163870276919504 -0.758978526458671
390 -3.722577693426577 1.571937731026519 -0.9602202941598209
211 -0.9520171826556194 -2.1814062653579325 -0.6360297134319635
391 -1.9236911511651489 2.352963347269545 0.8124602694786165
409 0.15120224862926404 -1.8079125323635505 -1.222290912876879
609 -3.6972757875192324 -5.196393725467998 4.163421760456445
370 2.2746270740610197 0.8925416807072352 0.5044857681327426
570 -4.008198072371961 0.554636470408161 0.14588744548912574
589 -1.406843631703338 -1.1780212234870946 2.302006717423387
590 -2.6219901697186194 -0.44060318661051423 -2.8500234000897224
411 1.527558193242884 -2.191996584910143 0.1597016664189699
611 -0.6756535448557183 2.610933164737008 1.3678494858004193
591 -4.284681357339058 4.9142603867776335 -2.513320786386044
809 1.7107622387340455 0.20425250130834458 0.0898741854381163
770 1.0369936739043355 0.30185140741117306 2.415837753245927
789 -0.3618951497551848 -2.5178604952095776 -2.9468356942078064
790 -0.8068136347307941 -2.6625329853773843 -1.8843750179600198
989 -2.076011563275627 -0.6869796131912937 2.611617572954207
990 -3.412577301264973 0.8308083122989819 0.5359008549599782
811 2.687625034833795 -1.4925101303320507 2.3119122322582917
791 1.6707848740648696 2.1238792999421365 0.5784105621946147
991 -0.8872040459256362 -1.146614770368273 0.5396430984504571
1009 -1.1660750073276414 1.1188148920463865 1.6322964090282686
1209 -2.1113982301772456 1.2988344275206678 -0.5894835475069207
970 4.931754531042818 -1.4584465131490978 1.0725111689828832
1170 1.1195175355389653 0.33229487719694406 0.859170354188387
1189 -3.3054224194016624 1.2190376119327961 1.026431044082613
1190 -0.5332500180164592 -0.05442221802021348 0.389943016152183
1389 0.20904300933523162 -3.45709984042151 0.8575959199380885
1390 -1.3409001737543642 1.294809203924354 -2.8664300495152175
1011 0.7691091254069096 -1.8616286461222198 4.00163322643921
1211 -0.1443359680278776 -0.7026482230922236 3.7860596074040442
1191 1.4445042207980874 -1.2874567411749533 0.8819531862166161
1391 2.066837982286059 0.5194791970494065 -3.832999110192003
1409 2.383323362130593 2.3329104158377514 2.0238662624592005
1609 5.8734514731364085 -2.456154529209786 -1.6161983841801981
1370 2.1139740273404444 2.3545551746228828 -1.714078317128215
1570 2.295626009991717 2.023626823223743 0.20736345313879193
1589 2.2806663186461944 -0.5545584313064197 -2.0280046905659868
1590 -1.715748026161491 -2.4450637837527545 -0.9064887877365178
1411 2.419167291411312 2.8627749652268686 -1.168448454211273
1611 0.5172647524153936 0.8893601248551963 -0.5923395008472228
1591 -2.0606570356045966 1.8649944884640264 2.127893619063226
1809 -0.7825143292941702 -3.7209063993411595 -1.886842533958553
1770 2.0350842559895037 -1.7790200987498515 -0.19868111774495026
1789 0.28906519209773907 0.5003045442138196 3.8158340562901767
1790 1.866152097617946 0.7118882837763024 -0.3105836873607734
1989 -2.207145426087642 -0.3447199739544098 -0.8787927219142446
1990 0.6181061471396833 -2.801997189163033 -2.1417105042475333
1811 2.1102777362384724 -0.6869089453043119 0.3867808770969811
1791 2.359932154065017 1.0731088508318931 3.352547510103385
1991 -2.762372067142815 0.6645137976037874 -3.5004569910675163
9 1.0048809555663683 0.11206610763805577 0.15161785589727245
189 5.5687462248517265 0.03518813116807832 0.6435320393057632
1970 -2.9540002260385445 -1.5506137009414716 0.42721224843683964
11 -2.8363240310344 2.0147492691504127 -0.7002257713427501
191 -3.113269960488235 -2.2629024544289 -2.3754249977806206
32 -0.5740787139872703 1.1659402718934564 -1.5285908633038503
12 0.8634929198230766 0.6642004596915466 -2.1708458793179424
212 1.5247836892467068 3.4664816195444503 -4.049385169653162
232 -0.4275171432895607 -1.3523270363761832 1.6297297950715584
432 -1.752694168918154 1.9497999880920631 -2.337932726079172
412 -0.4611202179344618 -2.0867973146083925 -1.396103603118239
612 1.1196388599606961 2.3572449247140064 -1.345576524043693
632 3.0956054526418253 1.9475068339257948 0.12852371468270224
812 4.105472086823425 -4.910201419593204 2.5932675696228804
832 -3.432712341408326 -3.577281815584916 1.0825130735066433
1032 3.116439031147531 1.186463786857408 0.997915131692687
1012 2.1614935404024536 -1.7936225798133376 -0.2142603431503646
1212 -2.049277752761863 1.8820987290711857 1.2690222882664233
1232 -2.847601879943285 1.662498391561658 -1.7848739419213595
1432 1.9092817447940023 0.2655566931710103 0.18216023496939998
1412 -1.9776189461095608 3.0027069979921484 -3.830159161741899
1612 2.51013229208965 -2.2643302040164963 0.09474453266327382
1632 -1.3305022790014098 -3.403339987622361 -0.23225887091864467
1812 -0.017349329955454136 -1.0470690023322415 1.7207851684263822
1832 -4.441049004351135 1.9976115985099103 -3.3359211867722967
52 -2.1293650733717278 1.571114937465003 -0.23880243332797804
72 -2.109199210955108 2.9695133784970387 -0.3982532257632004
272 2.4355291700862627 2.2338545051192478 -1.8121489004063636
252 -1.683490920060909 2.2207097210802047 0.17531303420473315
452 -1.1428053623528334 -2.865734604831702 -4.6658123288205795
472 1.3022186736979129 0.3739199164792746 -1.0203633193921522
672 1.7206312818114031 3.9646652768188395 -1.1842205979426772
652 0.18148250302623187 1.9442567005314402 -3.208149963028015
852 -2.1146490562294664 1.5439836037273205 0.7599608478947619
872 1.7268367032165246 -0.23856315696287575 -1.4476579795640745
1052 0.8033186096745311 -2.484511571021321 0.8465127294619497
1072 -5.436950086599863 0.2043697454996828 1.8896927122432212
1272 1.9981110682858712 1.1750064920889742 0.6482691073019401
1252 1.279679392947537 2.633081329247205 3.1692259490556567
1452 -1.7811627300939965 1.0624228898178094 0.327522091223177
1472 -0.6585228117995889 0.8766990328477434 -5.083386738207458
1672 0.19640681110923652 -2.0088979537096248 0.03930864607167253
1652 1.0683430993218996 -0.6003307886856754 0.711884672231276
1852 0.9838047632811229 2.704178405612706 0.5703927044415701
1872 -1.8077878579619844 0.6970189021292333 -1.407810206876765
92 -3.6924172340625097 0.9932828310336239 -2.8237245103186854
112 -3.638015886973779 -0.7299852475987487 0.08363221779515502
292 0.18917311183299254 -0.6140025887147418 0.8228321373416886
312 -0.8592955172825361 -0.7237592980060134 -1.482365692631559
512 -1.1104324075449414 3.5745319379850655 -3.637821919516356
492 -3.1991940065264735 1.0119890288271824 -2.3265514994629024
692 -3.6198120289349434 0.8239173059206836 -1.957588917428375
712 -1.2422361752693434 0.21404147937874274 0.03819208387720226
912 3.8783285299284334 0.5623138486543459 -1.5210551160233199
892 0.025842597732982815 1.4635418225144619 -0.3581576738338117
1092 -0.5822434365308763 2.3483434274446875 -1.0827240536155083
1112 0.8443949827847334 -0.5332563889613745 -2.5988271038474005
1292 -4.271197295974567 -0.797939746264372 1.6019052356339236
1312 2.764833196654775 -1.6767375855041402 0.24256691004083308
1512 -2.97573983014387 -2.0109754109317435 0.8643418516569251
1492 1.522719147630682 1.4928540792491969 -7.387115988859648
1692 -3.040074091938607 2.0892657245591404 -0.31648248835957105
1712 -3.553801163091683 -0.50401561117408 -2.0847018725668875
1912 -2.0949902471209185 3.0221796779759384 -0.15393301508463003
1892 -1.0107047685715373 0.5348476336796331 2.1640262672433828
152 -0.1598605058921902 -2.4465718384101534 2.1737502284859205
132 0.5328248262438395 2.716538052607006 -0.38770071144285767
332 -5.782694995543869 -0.6237725405918201 -0.5312126083355907
352 2.72715390867927 -1.803652684775787 1.9646318182341262
532 1.0098549806121329 -1.7396432288440493 2.4787326482874197
552 -3.3601496201768435 -4.235868980496536 -0.41892144089594396
752 2.2291028128559893 0.06661435783417001 -1.8502037202744983
732 0.5557869868545128 -1.500646208445973 -1.1608158851113966
932 1.7983465847948927 0.5538449339459767 3.930802051938806
952 -1.9140948873651373 1.0956094852502303 3.075780906556195
1152 -0.08108762541968212 -2.6994516610133292 3.77698605285028
1132 -3.084148092768573 -0.7043742216609311 3.1996181172724256
1332 0.05598065310846236 -0.9492167555587389 3.83420827948163
1352 -1.048580341208092 1.0433733732075128 -0.9622374549448603
1532 3.228180710600865 3.0358474971460083 -0.12799490351889925
1552 -0.1565203391541138 -1.85029737538017 2.495021073328805
1752 0.29073951185213964 0.9119764875919979 -0.06055510542287836
1732 -4.227157994573569 3.5017289451650098 -0.40427161931898853
1932 -0.23532574880733706 1.8134553151155166 -2.2344406464752633
1952 -3.5326233019947644 -1.1582171518598532 6.749306182870751
172 3.34659971660574 -0.998726095889762 0.8503240030635859
192 -2.0936928063520206 -0.6697827610409571 0.8033550452743531
392 4.8427955186383365 1.4551148751924872 -0.739611634667737
372 2.8663119568671918 -0.1255621159960529 -3.0938253822516244
572 -0.6944583129591849 -0.007505276945774317 1.8785395634727284
592 1.1308188850491419 1.6600050035198046 2.6057972509590788
772 2.5018953340903396 -3.6366989797797706 1.6096928085405646
792 4.135531072811316 1.0739965245466467 5.907595031479403
992 1.3406702098546275 -2.3208505123504293 1.7923960143398245
972 3.2558398696264206 2.0258977240458127 0.37582978727653954
1172 1.638446067650324 -1.6158734235539527 -4.2439930583314585
1192 -2.0484548479964575 -0.2714352768520132 1.5221535975115323
1392 -0.03969673099799647 -0.8930319066898469 -0.5046031140026767
1372 1.4669981863050514 -2.4760203815230084 0.3801174888493414
1572 1.8763830607890741 -2.0458583350593957 2.9493691874390087
1592 1.1860424253593274 -2.9326370922513796 0.10865663034145984
1772 -2.244364022395379 0.4241100701480292 -2.4846717143003576
1792 -1.3339602269332256 0.4746633766375944 0.3500883061646765
1992 -0.4350584542506889 1.1078206808905802 -0.24535634257431674
1972 -4.878583640583536 -1.1645080511063162 -3.5269771092999047
34 0.0063168131501638684 -0.09142293185534833 0.9895225317361506
14 1.2093494941369263 3.3398421834794587 0.6520027967276848
253 -1.8144389003009196 -0.1297594411939945 -0.6422851142477917
255 1.433522526382899 -1.8826740632160235 1.8461416814661893
214 -3.411374009767075 -1.0858860189664512 -2.577252249710431
233 0.5291792546637831 -1.9838315813520704 0.8384286277043518
234 0.6111167392571951 3.823234629568187 0.24912510819345704
433 0.7016041412089143 -1.6513159697452764 -1.3363625364705616
434 0.9315331036541297 0.9656864432947918 1.057213603640779
453 -1.3104567996839707 -1.0680511828296264 0.5914179533641732
235 0.3645687216830032 0.9849713681023354 3.0670004105519038
435 -3.700526813064864 0.40296835239658 0.9148936570451788
455 -1.0387615751528416 -6.568370710132988 -0.7572540962098389
414 1.7168728803968405 1.5683033006950735 3.295903283679462
614 -0.39722341728856325 -2.7289153954741248 -3.026258227726136
633 -5.809184408420201 0.5339448305657003 -6.009947279101188
634 0.21911570308748943 1.8176631794614744 0.820023274735245
653 -1.7464680879197094 -1.3040849930166327 2.6956949689602125
853 -2.4553301917280406 -1.1616838930276234 -0.01482732384501978
635 -4.078016792728828 3.970431469355038 -0.9513064093036452
655 -1.543790100122582 -2.4156437217975006 0.39884439677672423
855 -0.6751849321555523 0.49019663911978 -2.503140162187883
814 3.3540224586458875 0.2334246472111184 -2.0842658052631475
833 -2.0399992054287863 1.120140823098033 1.0647952721856424
834 2.8368568510234393 -0.7481588450019525 1.2503385297580534
1033 0.934196847261463 -1.8720020285340646 -4.762219562072496
1034 -0.39821463368273835 -2.2980175741819573 3.0958648477135924
1014 -1.5038013516550708 -1.053509595482075 3.7939733598680845
1053 -0.48883244509631935 2.8356914067859997 1.2644986873855544
1253 6.5949944762668915 0.30952331791382487 0.013907301141282823
835 0.8321989980266301 2.206779426835545 0.18814085196765953
1035 3.6775404459602457 -0.02203261549938712 -1.4998762955334335
1055 -0.9525759806808254 -2.8437006055371463 1.0656521532944685
1255 -2.0277898762242432 1.748439928264136 -0.5354077922354776
1214 -2.1735459324412387 0.32477950255263804 -0.9954810972740917
1233 0.805034647202192 0.12587286216580487 -1.2521024572128345
1234 0.691404730081351 -0.14086199206361516 0.13235268990635274
1433 -1.9622826304657885 4.939578764234452 -3.1035997247783493
1434 3.2732053058216954 -2.712867237451799 -4.682733017413388
1453 -2.9325879337903 0.428189233562421 2.9757959374583867
1235 1.14109001838741 1.0765988982201657 -1.488129275132166
1435 -2.3318105024449305 -2.423680542842572 0.7364195824385528
1455 3.700190853506302 -6.740696142237128 0.14875902208717412
1414 1.1747288621693535 0.6536186625246792 -4.344334343745388
1614 -1.4750965114898227 1.2001155649067754 4.752672152895932
1633 -0.9020551829116162 0.4667731435502567 -1.767707133993729
1634 1.993711245236682 0.14470464252461923 -0.3910939099836678
1653 1.8399015562959027 2.0222994441740574 1.8228642693473949
1853 0.5573969110108996 -3.765047179620431 -1.2358122865462624
1635 0.4618033060489283 -3.622413828016075 -0.28181825451456616
1655 -0.6206051193917433 -1.1974986190109238 -4.0217496816912455
1855 -3.9259032653420074 -1.0830494312511136 3.444946062637063
33 -2.9600589360975684 1.1575897287138501 -1.2450596846931108
1814 -2.4126189635048854 -0.6115240299036009 0.14159738497864438
1833 0.21613376050391994 -0.1497257672367435 -1.700306136083099
1834 -0.0569766855726018 0.7616098592198618 4.705052557706499
53 1.1646372622112082 0.25002017085542205 0.5726866796770474
35 -0.7254855464296713 0.32131754861910017 1.3283566812686838
1835 -4.1351872007228385 -0.9421909896835429 -2.32448871049042
55 -1.2855257734145022 -3.1073711335875545 0.030747157946050766
54 -1.385137432546178 -1.2180153731686578 -1.5155217356226132
74 -3.0230594569838143 -1.761043218611417 -0.020605561996538506
273 0.9752542115986517 -2.4233214467806565 0.32028857636214175
274 -3.275260387715443 -0.5050082424176707 -1.614067446634328
254 -4.73683459669644 1.2263062045096322 -2.4043386749141953
293 -1.306669817316292 2.96436195651815 4.057120297134589
493 -0.2875488311235608 -1.0044914433140961 -1.3409712879311626
275 0.8965261869686219 0.18569845160398085 -0.18145951490082715
295 0.49243699696169585 -3.0238015178007815 -0.7434646485820329
495 -2.1695081273261985 4.641327173355 1.5286509969518545
454 1.384212003993455 0.6969777597671728 -1.4268159346983096
473 0.8165299407363035 -0.8648215189587941 1.6468783564288731
474 3.2266746023439343 -6.729751621663006 0.7531409640943069
673 1.479941765883061 -0.22332931737918657 3.6454141550581625
674 0.68323027932654 2.1758947739122654 -3.3159238689185426
693 -2.125022521088291 -4.152998063082074 1.2976443180870756
475 -0.19416078365359116 -2.750327603639863 2.043212927206803
675 1.9745171723789772 -0.16492578917587009 2.130360859372743
695 -0.8077683735642807 2.170190807275227 -0.24944781469671115
654 0.4800861301104696 3.086619401482705 -0.7488891148985303
854 0.7196175808248277 1.0995944351460407 2.608375200305856
873 -3.2758501541820144 -3.607717390120389 -2.278877582082468
874 -3.0765437263307764 0.37317868067280163 -0.05827021787689529
893 0.16718119697436196 1.0435597809789878 -0.7416518174608279
1093 -1.5788566644543107 0.6830299441126103 5.530079696288217
875 1.730140288211685 -0.9211607224436518 0.8166679496787366
895 -3.7857450134896307 2.5317630613525814 1.3168326207750962
1095 3.2054851153226416 1.2054899045725416 -0.8564951475748506
1054 -0.9573394119466789 1.8738680569680028 0.27756687166786287
1073 0.6618337886730611 -0.8081046981838459 -0.3164843173572445
1074 0.5128983779168362 2.9919913244603866 0.01397527686809352
1273 -1.2321840055545312 0.10094821793324085 3.4328822369672523
1274 0.17361453648092304 3.0077709357972275 -2.1332828309416194
1254 -2.2107655699289817 -3.842609489818457 -2.7543445027569944
1293 0.725332894900117 0.6139960992646311 1.4096617701345726
1075 -1.1906490134368923 1.1103170722093605 -1.1510805819217524
1275 1.1130146945142263 -2.958197346659109 -3.738591440104803
1295 -0.2834360114880827 -5.898259216996247 -1.7913179006266118
1454 0.3424027570566164 -1.4674296088123366 -1.8664507122643272
1473 1.391272693894968 5.670342282522119 -3.0718691510254628
1474 0.8909761955663944 1.629477481462611 -4.420676849030996
1673 1.4339401495207091 -0.8039237146182923 2.267775097134505
1674 -2.3343125443866724 -1.2297166819027396 -4.557687366372284
1493 -1.1928066149952985 -0.4885193329793623 -2.489543859969227
1693 0.5028507752019307 0.9252400944541295 1.2662765124912025
1475 0.4132746809175843 1.4454798241547377 -3.4290033629891696
1675 -1.0269202937211492 2.520102855197916 -1.4625956332369054
1495 -1.676880489748247 -1.676511101709776 -4.514081644582899
1695 1.6510897546965129 -1.0433316155508159 -2.2043067014791307
1654 -2.3264291910677035 0.6000102578742658 -6.583026249373689
1854 -2.4313952010066835 -0.9480365414656736 -1.2286030436908395
1873 -4.294839418852963 -3.3035834068603163 0.11510784004304744
1874 3.7199346877433817 -3.7493120180970503 0.7461592767057357
93 -0.44468621491081245 0.07079761473164063 -0.9260625142963389
1893 3.456513756505783 -1.4719218877604194 0.4506918984450011
1875 -0.4582029244958431 -0.09666156486266815 0.9283272708457918
95 -2.038408000633826 -2.2319005059706574 -2.773290851866851
1895 0.3944842060452408 -2.997390975384373 1.8138354462628756
73 -1.7374840620029661 2.7629512212223255 -3.160184980803781
75 3.7590983305984644 -3.5615786212555975 5.658359025917795
94 -1.8864239413292796 -1.4098138957046558 -0.9350651418369031
114 1.4601634884589294 3.171710064401797 4.80522269436241
333 1.267725003733566 -1.032241842578364 1.3102391896406567
335 3.073311170753517 -1.1586439023021429 -0.21879475327770964
294 5.470312241427691 2.3407139374665435 1.8384551409960028
313 1.697266747556749 0.5152426734308857 -1.7430750587458785
314 -0.1782550535641338 -1.6585614730552047 2.61097040550003
513 2.549138585227447 -0.05993083848127264 -1.8313516884804297
514 1.6090270582300406 4.056229927652285 -2.7343941762465556
494 4.518728139403921 -1.0363966697804559 -0.9866450798976693
533 -3.8579109965342284 -5.61067289977894 0.72814892957534
733 -0.24927313028938008 2.1280786470641533 0.4402216594544592
315 -1.3826888890758429 -2.157541723953994 2.442499473605818
515 -1.591384999998112 1.666694733883322 1.3880319393588474
535 2.668314215859817 0.88311101174271 0.6671563109348396
735 1.5166545418563628 2.3046286999984353 0.09629089243588373
694 1.5432850221947632 -0.04672133682193268 -3.48961221258294
713 1.6033503664442255 -1.188565802986245 -0.23373953815074133
714 3.0847479663945467 -3.7193851927687627 1.606155743920975
913 0.7450030488846373 2.57219492641527 -0.7910130263988666
914 1.6389301511811716 1.3782889537924838 1.000148269903097
933 1.8526230352956725 -0.2753948328827089 0.38994242350005914
715 1.6418749651804323 -0.9411061979896708 -1.9804677282005192
915 0.5105717045051009 2.2429828863028223 -0.6927219659386573
935 0.3974579519614557 0.6189694889421294 -0.21676271006879638
894 0.5193227862131597 -4.5814994933243 1.8662303243737175
1094 0.32425773477382036 -4.853571194595643 -2.605937298744919
1113 1.7438998422466963 -1.8870722022641642 -0.187169288516089
1114 -1.840208007193463 -6.2655158331426755 -2.783499120365019
1133 0.6866359247425674 2.7695429920848045 1.435362691920602
1333 0.8190532332087845 1.4180201309023788 0.6034097560012676
1115 -0.027433302125614182 -1.4199748895973772 -0.25414255174249434
1135 0.5375098821834319 1.0076635021635414 2.8814876788653008
1335 3.476144907434198 0.9763132689472811 -0.7235053355759735
1294 -0.8140431881774196 -0.14048925737556173 -0.6073779762276366
1313 -3.1214165439143917 -0.3644130265038241 -1.8168116017207807
1314 2.8069584287699354 2.436377782741187 -0.987599147111937
1513 -0.9702030860359786 -1.6524254327458878 -0.877395855699788
1514 -1.7943365635018302 3.4936705246721287 1.0725590488006007
1533 1.0290618644509488 3.763279413402754 -2.1487296428063023
1315 0.41900095679410215 1.3404265508354736 -3.880020356842247
1515 -1.3514558643530203 2.0005999119546165 1.0653067055807004
1535 1.7003712503582322 1.5667137540236111 3.6509777260673673
1494 0.7380222820799244 1.854783540965852 3.226596945639368
1694 0.07622969864807781 -1.1826250500247497 -0.6846621132503427
1713 0.1993949233626445 -2.6956163066602845 1.570821176326998
1714 2.1402274882771537 -0.7473087078631746 -2.385861502274222
1913 -0.9381604726045268 -4.504997680321964 -0.40428703880975725
1914 0.5588658908527685 -1.984330415950869 1.447865618353069
1733 1.0127083244919133 -1.791390356336334 3.492930277736783
1933 -1.3594520050907264 0.24941148332072655 -4.090288070613566
1715 0.1012180066666209 0.25895640982595675 -0.6985778525255703
1915 -2.331947751473478 5.659182648334259 -3.845654782590957
1735 -1.4451060038827392 0.9061293596926635 4.850466577877395
1935 0.37497243618145953 0.9574033819334867 0.4077458845541611
113 -0.09903770933266524 -2.5811084047593895 1.0838905586375622
1894 -0.256716357140123 -0.8789754924534668 -0.6220597801271879
133 0.9629229460324451 0.5377993710319031 -1.5865623811924312
115 0.20448086453343958 -2.8258627433536456 -1.2926246255667033
135 -1.3089550835657298 -2.5850733824544605 -1.5562478048092097
154 2.2401104481599945 -0.5023026652873672 -2.9564403684453646
134 3.8908012201635382 -1.4066953309027819 -1.611357921322375
334 -1.2868849095014079 -1.4903102185827026 -0.19913123783869033
353 -4.355289782378431 1.0160142599304283 -0.1497799434177472
354 1.4988179228686147 0.3258064361013934 1.8130107590262048
373 2.392367057650076 -0.9550902486570382 -2.780200842110627
573 0.015549863997770903 1.3620654855386705 -0.34723731852550765
355 -2.4204088492610927 -0.5441136741858866 -3.471512661591906
375 -2.0196456323934564 0.7571886637056642 5.447791918995807
575 1.25157958693174 1.1183643152784468 0.7634209135643925
534 -2.067882603759201 -2.195508364659993 3.1886884171831666
553 -1.0491794041325213 -2.08096527471477 3.5848076436047034
554 -0.6930853386984871 2.3738757303151776 0.27624699990827717
753 -1.7729845537883444 1.4798149229992705 2.92510874449236
754 -3.533947790308371 0.3322821697448987 -0.8554113776276735
773 3.4301029673121617 0.898802682801662 1.5342548131776261
555 -0.5318922099843512 -1.9603581109768098 -0.8164548956109635
755 0.09766312040497482 0.7633187656101811 -1.6786703646998806
775 1.1026635770955275 4.873395364715489 2.150638788043311
734 1.3515994646110367 0.5370751635045401 2.122986015195258
934 3.006180541183507 2.431976264689995 -0.8257494847316855
953 1.8055806074292173 2.663057403431682 -1.279696573357305
954 -0.8380920765015097 -1.9568600015364657 -2.306156650603061
1153 3.226979786850849 -1.8362244460113892 0.7986747793026521
1154 -0.0833898793626997 0.7983027134231442 -0.7676173029507499
973 0.32191511856056004 -0.7862524616696146 0.5353693625654722
1173 2.1052486531301993 1.723153676121875 -0.23835748770309703
955 -1.4840899323915302 1.2300795567731606 -1.7553410729314476
1155 -0.6724369187721361 -1.0138505763461974 0.27391377859631516
975 -0.6264907427784812 0.18089145553760813 1.1139409895571457
1175 0.7222011188439319 -0.6415251764124271 1.0848166644801982
1134 -0.6531099933711164 1.0636799075148826 -0.9913140257150305
1334 -0.37286125582797447 0.9829027060741488 0.693035108979419
1353 0.04105790499551431 -0.445065054812629 -2.193041204191194
1354 2.2471103908089107 -2.042825329457161 -3.73761585970313
1373 -0.054006727845536465 -1.2398784211229577 -0.6041546380914697
1573 0.6626497517846038 2.008528856098659 1.3699211671232954
1355 2.448746269115369 -0.3700618967736726 -0.14372242889294906
1375 1.6442084024800676 2.8806856124761575 1.0771074170859143
1575 2.981742083084844 0.5824115238099082 -5.4538207431953225
1534 -0.5935792698983561 0.7815291272112377 1.115665877650072
1553 -0.43799633503111973 -1.3889333154189054 2.8639622398038638
1554 -0.2784700545420067 0.24944546885640465 -0.01785159208033207
1753 0.6159877446694587 -2.3594792140827705 1.1211811540829861
1754 -3.6022192060263727 3.2428922130678997 2.4002070239210767
1773 1.7483110331384166 1.5333235264529834 0.8652380857062748
1555 -2.603229396521964 -2.4208025435824116 -0.0020707783624568455
1755 -2.7207591936171927 0.5591831181615234 0.8609311978536789
1775 0.05676334890895195 -2.189383814342058 -0.349369969085215
153 -0.48341904416731063 -3.290140526365018 -3.957233412105553
1734 2.097759730087542 -0.9332739983377668 -2.1864809866251402
1934 -1.2733704798944252 2.180758251167767 1.5601440862107696
1953 -2.061537048916676 -1.5645522748666516 -0.29155609444193953
1954 1.1058321780954115 1.8877576720994065 -1.8011762073525357
173 -3.177725833114865 -0.556710064187202 2.5118831834880693
1973 -0.052473407209044275 4.6659818543631735 -1.7451061375143453
155 -1.6192070081073582 1.2728214222440024 -2.323529564462592
1955 -0.08437835818242836 -0.4460827354683435 2.3907985843658084
175 0.9804184827021228 -0.882955225401981 1.5609973718456587
1975 -0.8727744671557234 -1.1289037303644867 -2.923600717210289
213 -4.018579123728448 0.07764834163197634 1.5494492177156505
174 -1.356821717532722 0.9511286999289115 2.345728824104679
194 -1.4798682166438182 1.0704914827497256 1.6724592223254173
393 -2.865843891538039 -0.6967056415586397 -0.28742179761958203
394 -3.332372014853446 0.8872522189038171 4.955519117123706
215 3.4670637615108046 -0.1446055403896678 -2.2579166433345454
395 2.0205948317488938 1.1030365161137088 -0.5109008656449152
413 -1.3740354767213174 3.7521125518559497 0.13000872335661037
613 0.04003783551322014 2.373481689056274 -4.849336688223387
374 1.0508789085703945 -3.958123272127116 -1.8044262412505647
574 1.4945274447222112 -2.3456637213031444 -1.2049278456368318
593 -4.367930229053694 0.0308070858687203 -1.5103897785974714
594 2.3741737824776687 3.2402732395587917 -0.5522933154027156
415 -1.6309816879336263 -0.3518807272897657 1.02764596926762
615 5.693067580983917 0.3486708563962075 -0.031180805218686124
595 -3.3377967756265106 4.877692975544814 -0.23680772734396519
813 1.4128093532296941 3.4395932921752315 1.7900882741545994
774 0.8491879558346557 -1.1034446621880645 -1.5679438358726139
793 -0.13573717905693353 -0.7697103434171135 0.4879326713926668
794 1.401188963191124 4.820093726351633 3.694458301972921
993 0.2108591241294216 3.3214257243247167 -1.3791412996004342
994 -2.762558748094468 -0.9754877413062342 -1.4953785864784004
815 2.90486743134033 1.2626884466761723 0.5206569826285781
795 -4.741153991162651 -1.7589305693780466 -0.7679783468955618
995 0.4859190375497517 -2.6196941676982735 -0.758036382517499
1013 0.5160579258758153 1.683020714661523 1.6493707033071678
1213 0.2983365219017823 1.4797955980954145 1.8335544711326033
974 2.272247869603314 3.055462507121666 -2.3006556418318933
1174 1.62587240535076 -1.8397772225701539 1.2947447256687834
1193 -1.9442188768674666 3.2166599789308035 2.6235678071351636
1194 -0.3751012701131076 -3.3181995251920475 -3.3668374612948946
1393 -0.5579583047263807 -1.0083379917458943 0.6629614983041612
1394 -3.5957414234412153 4.363980356618698 0.7590095145068898
1015 0.39968148300254047 0.6022718445663593 1.6840531764063449
1215 -1.5208641818474304 -0.12450516138469807 3.591255820454243
1195 3.8735574230212215 3.4845636189078713 -1.9108217873279212
1395 -0.525314406461561 -2.264356637493562 -2.783790555020398
1413 -0.06118942720874088 -0.3943811733911999 0.05120440418506568
1613 0.6085573551286908 -0.4771568368816893 -2.861421968026272
1374 1.1946937181424884 0.2702961786515223 2.703254533752872
1574 0.6628068980685898 2.4606347308151952 -0.9358086976858966
1593 0.14451819351192713 -3.8956186082765316 -1.9467959151797845
1594 1.656948074541212 0.4729023937181459 0.1326286116710852
1415 0.6057310367005548 -3.025639926570784 1.8599328333488325
1615 1.82371401328633 -1.0138729511354252 1.659765303051171
1595 -5.421540803437239 -3.0150423940038875 -2.8433769703878853
1813 1.5976226466446566 3.3897634562764867 5.298362630180081
1774 -1.4370257247140539 -1.53559578519665 -1.7695569953449846
1793 2.3291833512459705 -0.8901494193323177 0.06975457370617796
1794 4.461238043010131 4.610554701385412 2.5508780218945417
1993 -2.267980418011878 0.6058281548037653 -0.2895937519634792
1994 1.7094510007566508 -3.6486767475610495 -2.7201307736034197
1815 2.485290813213814 -0.6739013233484317 1.0193138949215463
1795 -4.9680867753303035 0.31446576285415895 0.19318731517293575
1995 0.8995062056904257 -1.0906143500137908 1.0192417946349577
13 0.8991716047395422 0.6443841133715148 -3.2878511894040967
193 -0.5730918261663502 -1.6756050168560217 -0.33507791603307796
1974 -2.0540781275584634 1.9602270436988927 2.1738103064282726
15 2.1057340025154825 0.394064482478427 1.1810740269632718
195 -2.035884292953682 4.009687909561262 -1.5779263251051636
36 2.9544110428204395 -3.055773452583491 1.8836130841256116
16 -2.435852483701019 0.710712200208122 -0.34167776088993174
216 -0.9252948715503799 -0.6166015227014094 -0.07670818823781463
236 -2.8176843260814226 0.5031193510549424 1.8618958043241502
436 -1.4137159983122591 0.2879948637466626 0.7720197454395945
416 -1.1484420617896358 1.7744204885708057 2.9771608843649973
616 -0.8355349577707105 -1.0579867791930833 -2.085227727666339
636 2.833105662943865 1.0213766414797092 -1.1251649460769533
816 0.3745417851247916 -2.047964296449089 -0.8614077920792097
836 3.2933972058044354 -4.136553661711294 1.1149966813230276
1036 1.9219028769365356 -2.315722989279199 0.3285903741680839
1016 1.2736180036310873 -1.3326286050079268 -1.2824964030052224
1216 -0.7282967874523275 -1.188803561788686 -1.028293470596332
1236 -1.7525429845514477 0.23855870516508912 -2.090998400089437
1436 3.5244136611494885 -0.23275544781641302 3.622194971344706
1416 0.19465677173921875 -0.8231968832710692 1.6125554674745823
1616 1.8664123486294837 0.9974716661164482 -3.872828941444793
1636 0.43412545807535163 -1.082368051974759 2.1857084161370395
1816 1.026521839174388 2.7967780883009503 2.411622572479808
1836 0.6016516024621759 0.8656906575875494 0.8695044873747325
56 0.048887498378737654 -1.9648146328447837 2.8454673156833272
76 0.4479501139593488 3.3452904900450395 -1.2840611050680244
276 -1.0285600650067461 -1.6635700715812216 -0.8343311162561066
256 -0.7465311305248524 -2.431712290359869 3.125393778315816
456 -3.1919180168307246 -3.3410477075522302 0.7927591643143641
476 -1.0576221220558437 4.084985752550033 0.3670237666639984
676 4.219461230301367 -4.983864984142376 -2.4093732836986628
656 -1.0297766442048184 -1.321467528409618 3.936343392914948
856 -1.8240860880786791 2.254638469056332 -2.330990725943676
876 0.7068914374546189 -1.4559545649514332 2.057750597145903
1056 0.13712459209329012 3.765559659134577 -0.9390964977860197
1076 -2.043222081087678 -2.698389231514085 1.3107780571112664
1276 -0.09092889234367094 -1.3519655887752273 0.875262217637857
1256 0.6573871521869546 -1.6182902850525298 -1.2415492677042084
1456 3.043343470496712 2.424723253616235 1.6884858879304259
1476 2.6889385392018275 3.4811582970072594 -1.0115375874508459
1676 0.42691428592404 -1.0794373600167977 -2.381339229333223
1656 -2.366579173904639 0.7554630123066004 -1.656658231301995
1856 2.199323502598109 -1.9802127627655721 2.3335198722572295
1876 -3.867396590580696 -0.39947734475593477 0.05222158465691865
96 -1.3723715783878079 -2.8348144389888534 3.775199350538383
116 -2.6606773481773924 1.063552431389944 0.34661510494791276
296 1.6001641721358701 -4.351874536947246 1.6520052135359389
316 3.682691987570583 -1.6959001736926616 -1.9195029248144675
516 -2.965967570727851 -0.506746689736757 -1.065863612970363
496 1.2700125236245943 -1.7263970276270932 0.6839556386115286
696 -1.8501106659706075 -3.6801198457324036 -0.6034580973424836
716 -0.05910522005187479 -0.8825644200034007 -0.747663526719219
916 -1.4617273727836342 -5.1271566023130655 2.47236361182148
896 1.087252394594441 1.739154570327791 0.17066155524488014
1096 -5.842707255489265 1.1093872431334886 -5.132157437741927
1116 -3.351315598413868 -0.5925458263018532 4.715965409720949
1296 2.1870945728585527 -0.4338113816313756 -0.11580150445295935
1316 -0.629420397184298 4.314282469949595 0.15931277974446398
1516 -1.4855035141567774 3.820108425248318 -0.008427619897711703
1496 0.07303655602155792 0.8950082439581447 -1.71528715870864
1696 1.793186051438571 -1.2328700382840307 4.980319657030786
1716 1.7764899882293643 2.121669103925657 -2.372650515242255
1916 1.8581082372426974 -1.5516520337510626 3.4546382352071516
1896 1.5153917209637122 -1.1354391696123147 1.924371822976727
156 -0.2406150396414218 0.33562946280620737 0.05195284092055616
136 2.8633453601036654 -2.7319283995637713 -4.950047247892053
336 4.004480048882051 -3.002514541034857 0.05170533513360772
356 1.9017283850373576 -1.7610086379493661 -1.7135677709359747
536 -1.0353938345957878 -4.114083170186868 1.183180315796095
556 -0.7923379333721408 -1.3726280709515426 0.3208666418211664
756 -0.8698937324596554 -4.516543645386734 -1.9790062732728952
736 -1.3180176506783876 -1.8330445608572452 1.429165681334603
936 0.47504035897245284 -5.072302252799447 1.4310434860910988
956 3.589464474754136 4.032562829167009 -1.7108052358232946
1156 1.2993290844917202 -2.1572564306352215 -0.6451781386096204
1136 0.2958868438770897 -1.003926736513914 2.0876606263199946
1336 1.8472330915723192 -0.3633441301733565 -1.4408523885293019
1356 -3.186162034011371 -1.5693438259658126 -1.0170092725241309
1536 3.6369732392366783 -1.8007668660387088 -2.8550992214566016
1556 2.7416937131575927 -1.8368057311990638 -0.17488698244305517
1756 -1.487363864304178 1.4966966285984802 2.7148448898891555
1736 -1.4999710850545633 -1.4737547157767537 0.09796997163226033
1936 -2.800538118703491 0.03130812028490157 -2.481211852976496
1956 3.6886039273638307 0.29729542714608836 1.7884604989524666
176 2.7180222046816533 5.156772464174852 2.822980769410452
196 -4.4226827089433876 2.550792738324078 -0.8106617413270317
396 -0.49120116014963244 3.9689538122251515 -0.9174411577511921
376 -0.16294922601857997 2.418586884801163 3.121076177239374
576 2.231143062639487 -0.7742663582253743 -3.0252059891166354
596 0.8918555369862236 1.1898985447791148 -3.6987193259259046
776 -4.301745645135528 -3.338498574578821 0.8242700034595278
796 -2.2521663709891055 -2.2334320764611295 0.6379343342215262
996 1.6885103228971523 3.631607048652015 1.824037103952349
976 -0.5736438965579523 0.16995828803843233 -1.201080505831693
1176 -2.850456860212087 0.38796655126802004 5.316136280330259
1196 -3.155092970786043 5.2707390275910075 3.9838260791352207
1396 -2.043819706000723 0.8367354593550854 0.32263126855742064
1376 0.9685686970616233 -2.088594534800221 1.92365752169138
1576 5.300801883072101 2.4126394862891205 0.4569612938497015
1596 3.2518399246168994 -3.019805755675392 -2.4632418957347992
1776 -1.5091360337544069 -4.0856479860333765 -4.148702731487103
1796 0.31192279209110413 -1.0420090233364683 2.2466005931587856
1996 0.3787173795469485 -1.6732027512555951 -0.25327795547868476
1976 2.502916540632871 -0.7382773497763494 0.01612266813490191
38 -3.0129531552460147 0.26055244142255035 0.15091429153286645
18 1.9171276844016758 -0.35548163669836785 0.838679784571219
257 -1.424748462991818 1.3768996069611412 3.558238678612559
218 -1.9188300141522119 0.14889066739291565 0.20033077778893651
237 0.4925256781819203 -0.587123303558067 4.422189416895079
238 0.47591552061324116 2.157108724156688 -1.502370755999925
437 1.8555593298259203 3.2292486941791037 -0.12549858141568893
438 -0.19730639567092356 -0.47986304711047695 -4.983655335027952
457 0.13463508108111436 -1.7609765345877981 2.5748452658575327
418 2.5166948932666116 -1.803561895805402 1.7725433447003067
618 0.24138333061119488 1.5478738348671046 -1.0380995496651175
637 -4.705891885848167 1.4764895619097103 -2.802871939944426
638 -2.6904022273278514 -0.2827635424718077 -1.8129184238458143
657 -0.9461016036037926 -0.11599537433136838 0.2228215669462494
857 -1.6469584199213347 -2.120128554151255 -1.9076715882632087
818 -2.925221026827811 1.7404180107451213 0.3382222507790649
837 1.9469321058839109 -2.397739320657702 -0.4954008117991543
838 -2.4114817042321857 1.308609916012547 0.8224829555677955
1037 -1.8861593960838856 0.9400475489007175 0.004653878836207127
1038 4.248969025568698 -0.6417017071938265 -3.720969894148251
1018 -0.7626786780935223 1.2754935672298264 3.4326506753770034
1057 2.622567376287234 3.5459479790862725 -0.031726361467627244
1257 -3.7480412043675067 1.2541301579679291 -5.5639457317859495
1218 1.3951677614017632 -1.9723848272032978 -0.13480943782548338
1237 -2.3335709426838873 -1.9463863033657285 1.1435311141651372
1238 -0.8573560645205058 -0.12734003916156414 2.3219848954131503
1437 -0.4068502460787864 -3.4597606566604258 -4.019248270518105
1438 -2.934511511636182 0.6629321367946109 -0.6320513091927191
1457 0.2394160783038377 0.06757096867662915 -3.777345280929524
1418 2.055053584701222 0.7999055100148927 3.498353655509776
1618 -1.9147292613482734 2.2406299979473485 2.1899656162234526
1637 -4.42300117075186 -2.780944879089621 -0.5476927918392502
1638 1.467213521758839 2.6523846825828246 -0.3374661894968586
1657 -0.0549658785364473 -0.6776074389188921 1.4838571097007787
1857 -0.7687444111259729 0.7240891396616326 -4.469409095150965
37 0.5749803134689533 -0.1407161654599407 1.2233015831272525
1818 -1.727549532882516 -1.3224110709811883 4.125063052188211
1837 2.2936219537619214 2.0160587968340815 0.24196063345538762
1838 -1.3963535070631163 -1.6073317145424493 -2.6848683784766694
57 -1.8134111526818184 -0.826115042785273 3.6925373757554096
58 -4.146720814033282 1.8372956608300117 2.0198576345209918
78 1.1188381379822243 0.031075344966021882 0.6231926381576463
277 -3.978749620205346 0.744509275244199 -3.969132510034031
278 -0.5880900222216939 -4.004820359438463 4.805670614854589
258 -1.1719970515966465 1.2170720437556803 0.5760870645398698
297 1.7777365321136203 0.31594756877806 0.5186600755757823
497 -1.5048703033682078 -3.333817617909837 -3.607099369332275
458 -0.35313995228157685 -0.7936236248689335 0.18750459528270905
477 -3.807192494555403 -0.1395049221953327 0.4360023413944685
478 2.7273675156176127 -2.785839417351794 -4.327590460590544
677 0.3260254058012496 -0.8060043261733704 -4.64697874843191
678 3.7148272389310373 -3.3763121196662644 -1.2333883588955903
697 -1.0798842318851705 -0.19069191135006644 -0.7653952602036241
658 -0.14982467333894048 3.591709039804016 -3.476980785778646
858 2.465868372816343 3.3960026479438503 0.762620788235095
877 -6.046075371499518 -1.8509265315980283 0.2658800025357021
878 -1.0799599945607454 2.7750632465620195 -3.272170281533705
897 -2.2360309146610002 -1.8120233652968778 -3.2210752434015846
1097 -0.31443177738753836 -2.1971801409041953 -0.3032731143633261
1058 3.1607860600633315 -4.046984682889881 -1.075777669573686
1077 0.3276449815649383 -5.448205033223238 -0.21129984301382576
1078 0.02046126392510303 -1.1276626232147449 -2.27897121677374
1277 4.1017856095973215 2.520962105876009 -5.194963327147771
1278 0.5843780209435736 -1.1754442683750186 1.2054431535325798
1258 2.6940682180078483 -1.319929027233114 0.9241373279708409
1297 3.326454969984488 -0.15315103856833465 -2.1500930778100993
1458 -6.163855957600681 2.080150498006207 0.7151822573200829
1477 -1.8775041051243102 0.7080492876532385 0.9243768867443493
1478 -0.09755005546670871 4.513445710650456 -1.1437216317248695
1677 0.63336005424227 -2.322426373672001 2.063821608948042
1678 -1.4588199192633147 -0.5576444883485935 -2.124203591185809
1497 -2.307983526750411 -0.6216362882216877 0.6984113696262744
1697 3.0638667566918407 -1.9301702501941178 3.5334764243118806
1658 0.35624306691382346 2.495038287863827 -0.4648724935715689
1858 2.117059663784893 1.0553043849586545 -2.7425571978786656
1877 -0.29826303235311485 0.43293999667941535 1.5221595107690857
1878 -0.3336354326231788 -0.6203461681705047 3.1167152055788683
97 -2.5105354844100662 -1.6133134385281975 0.9563255315292276
1897 0.891880663380147 -0.16730804047949294 1.6077399583832366
77 4.430565095931546 0.5023260059842343 0.2774666979237703
98 -1.1060093980374137 1.1504910939137447 1.4086004877279459
118 1.45692631292071 -0.6938729774433208 -3.2563907514665336
337 -1.879270335066437 0.05807761121896352 3.3195202721334294
298 1.289157379071056 1.8064467295154834 -0.22453826046116968
317 0.8476929113649475 -6.240079039305768 0.7022392197929995
318 -0.7619749048910565 2.074098919719239 3.499827815227707
517 3.5615013083235536 -2.876021842500482 -2.9898845028432075
518 3.006803687723243 2.662624983547439 -1.418210147821188
498 -2.5993881447061007 4.0579115199976155 -4.364611473862367
537 -3.4607611819749855 -1.7278123033550687 1.1926565468883834
737 -4.0014613076548216 -0.14632284267605233 2.54176266513059
698 0.4202729280926195 -0.2884885525578725 -4.247878751267879
717 -5.401559591526674 3.1565289439423623 0.26882424594634313
718 -3.5863445122351334 2.952743112368717 -0.6550984929055587
917 -2.491783891881539 -1.989802862241039 1.6264474292370577
918 1.3369509528676455 -3.7543914952881017 2.3390384391017323
937 -0.03434930028265806 -0.19889844820969071 -1.3220805161412452
898 0.30882932968818516 -0.5583370562590851 1.648140178861616
1098 3.2073003768588353 -3.9451057139353005 4.811278707370746
1117 -1.9179956501230624 -1.5089602177820594 0.6022462788339992
1118 -4.984060542767717 1.5819424194788685 -1.7899031028201153
1137 -2.009632533287037 -4.193704196122098 1.3165633913796704
1337 -1.6742781803997473 0.42294768311390124 -0.13444536563914955
1298 0.6019169788576293 -3.817677478735452 2.903088998280399
1317 2.483600440664102 1.6459619555334635 -3.8159232235020406
1318 0.5182198117247641 -1.710184947960573 -0.8730741570093197
1517 -2.3800729938887124 1.104842587487289 2.0618583481538666
1518 -1.536367704460967 -3.1171499990006653 0.33836538803714894
1537 -2.863467081038865 -0.9637424838966684 1.718697718500853
1498 3.345596351656586 -0.7442629193939918 1.8867959479797505
1698 -1.6034204317978475 -2.934092354508312 -1.0975084159180843
1717 6.512589702403798 -3.288593296172396 2.0454762790306535
1718 -2.124654858661899 2.814103129685556 -0.5920611042401046
1917 0.18181767503518784 -2.124529885043403 -3.3662804156180566
1918 1.3926749264571645 1.5010133343211962 0.44776311192410795
1737 3.9854959459494923 0.8678417000309375 0.4389137161113933
1937 -0.37991535979942365 6.242916996792949 -0.6176898237630722
117 1.5982939693404166 -2.637997352607981 -0.6994667501496614
1898 -1.245563300190947 2.136927422616379 -3.981054001659099
137 2.7223231592806134 1.7743597010787624 -5.116541030299446
158 -2.4378038900077708 -2.2836070592268145 -3.2218975179779927
138 -0.7388353105127551 -0.32134916460305935 -0.23602231996665013
338 0.7719778553320726 -0.4690264810038923 0.8187376790460031
357 0.20483744314719604 1.8195471987761354 0.28880858487977124
358 3.5642004820752216 -1.0639789713992103 -1.8437253034782326
377 -1.999043287656954 -2.0273855981724958 -1.5499608305128294
577 -5.196909487345028 -0.2565028779284435 1.5356256156997277
538 0.5182462197781951 0.4063854736034866 1.0363873334324631
557 0.6039958893062009 -1.2331624777356638 -2.793048843531031
558 -0.20000566833796105 -0.833005725910729 3.5604574852710997
757 2.0644062607916682 -3.3364833860513556 1.1074836166429018
758 -2.026382822505643 0.17166104884805222 -3.8357848644538777
777 -0.8659871582530972 2.416871625206251 0.6141799740864503
738 -0.5456763428267757 -0.33184370339608055 0.03059182252204121
938 0.262485804446667 -4.940706279277059 0.5200616648115944
957 0.4617916511680239 0.08651263189261682 2.7314163647432794
958 -3.151980330530122 4.440885407971233 2.3688803499469673
1157 2.124146061902845 0.2859283038701236 4.265026313000574
1158 -0.01823932805801062 -2.333742807752339 0.9268922544955199
977 -0.5282390419520039 -3.3479151781941225 0.006765746654771635
1177 0.16668303800193035 -1.2561914893290136 0.8086114567567683
1138 4.475356456444801 -1.0434269730358743 -1.2465444039230775
1338 2.3254714254784306 0.7271958602727753 -0.2430610657614988
1357 0.07466682451101805 0.4387504521181523 1.6981048239504144
1358 4.247986055902049 -1.5189542599802144 1.6059619175755737
1377 0.21711362482567112 -1.4952436854924205 -2.1297011798150165
1577 0.03395992056829434 -2.847736585732437 -0.8271110981485702
1538 2.4657837891113097 1.8666502112615033 3.026754273369211
1557 -0.6471242989902032 0.9921756172293861 3.0203063236056247
1558 2.0240804842491973 -1.2562530195515496 -6.56742742789814
1757 -2.845565905661868 -4.904466999740026 1.7734075495434445
1758 -0.12979585618192555 -1.114840437417322 -0.0013980148666902434
1777 3.7616419938993255 -0.8073094854337763 0.944618320366869
157 2.2329000864118282 -0.9278946812704535 1.6258200156357894
1738 3.2434427284263068 1.4418296145914948 1.6572676412461216
1938 2.452897747523631 0.7327665464977267 2.002508609094252
1957 0.3136623777579287 -0.46516377422513944 -1.3578320307097937
1958 -0.8234082364685382 0.3151777148436734 -0.6022072206232254
177 -2.202265394841314 2.9378675650646384 -3.0931157467844606
1977 4.071498627896302 1.603422093208437 -4.208446863541862
217 -3.3333393234104056 -2.571609426491959 4.208291057948821
178 0.8095966100975622 0.6823722067785208 -7.358477537125749
198 0.6386948178677945 1.3618775286171239 2.1868287899477923
397 0.944326391554899 2.16541173302659 -0.05607832655033142
398 5.069174220503299 -1.1657678367679403 -0.7150601877773836
417 -1.0727363656716769 -1.5753098956626206 -1.9242386400030904
617 -0.44989374032287316 0.4580539693479543 -3.248617955469521
378 -0.4098100505813905 3.5345900096497753 -1.0033587942039293
578 -1.642036964723209 1.6722257200258617 -0.9394570654437305
597 -3.151462228433273 -2.942552597546437 3.6088474979147125
598 2.436006050129618 -2.1474752954836984 -0.5436041970109231
817 -2.7528868127722848 0.18693090867945134 1.809271253166907
778 -1.9417679785482314 0.8517988484114758 0.8039750258953539
797 1.2665515298075 -3.3142037704890788 -1.2978342748197116
798 -0.6803874121113013 -0.6762442422696426 0.2842146524555702
997 -1.6510383295486344 -0.581869091539922 -0.39846600575676705
998 0.3756224333102186 -2.487780759945448 -1.1246367301968527
1017 -2.1944255715815206 1.7592001239968202 2.1534452383447222
1217 -0.5948737559018079 0.6732690655637503 4.03605031650581
978 -0.8418827903310628 1.3261767534559206 -2.750182602343178
1178 -3.426920645751291 0.56448198940152 -0.6599721578973056
1197 -0.3000551768083123 2.487109574415954 2.476638027899311
1198 2.2362221907925 2.2722458919662816 -0.9415253641214879
1397 -6.431838273640382 1.8919675295048384 1.4871751048572723
1398 0.349668900889981 -3.6636187886876304 4.081804053821048
1417 4.457019250834783 4.121375028043799 0.9922533465018989
1617 3.1792106094415784 -1.1908885095669084 2.1217578241944257
1378 -3.917901111573012 -1.026416819557055 -1.723146081944178
1578 1.1849740450523836 1.3175907646040743 0.7472303910496855
1597 3.0227938689118576 6.00570789696559 2.8444690721150785
1598 0.6031339818275346 -3.1815932082463916 -1.3029243602644949
1817 4.554818483425731 -0.6455295573807743 -0.15536365043144681
1778 0.34976463033469257 -2.010879565804653 -2.416726123425615
1797 1.3531994474238451 -0.7995950212955784 -0.04646727551395389
1798 1.00710301154556 -0.6600121241167712 -5.424722954994069
1997 -2.1183105104370634 1.881074270147053 -0.26134558434318095
1998 -0.43144068753261994 1.4602354448848704 1.4165353122635609
17 -0.3742309247634731 -1.4403528239236 0.943364630407644
197 -0.5209655128703758 -3.0463475696864455 -5.255963789810036
1978 0.020369246502277196 -2.8096670548186586 1.9219350917062101
259 -1.661487481548233 0.17835306434962417 0.26858574997504653
40 -2.9335746299613685 0.8442866274615987 -1.060196958065729
20 0.3541999662824997 2.570774809744923 -2.433826054098998
239 -1.9479277615396784 -2.0092682512523266 1.6809722210087519
439 1.1162466568243823 1.1428539691945034 2.8980000307564513
459 3.1808446792430334 -3.768057701555519 -1.8137248456794317
220 0.5090443608095968 2.6334679523830977 -3.1170261759678732
240 -0.17790687352114848 2.598810802558271 -1.0479426691215865
440 2.7391336862478233 1.0258920977475283 0.21336085329163562
639 0.24560978796854027 -1.8226656857273704 -2.5475139921265653
659 0.4753339117999219 1.3326687036258429 0.6630643059005793
859 -3.789531321880249 0.7863221552373946 -1.7817252424505434
420 -0.661432959396719 -0.6836650352249936 -2.7987877784746997
620 1.3287090043813823 -2.3576904601276634 0.5485556361749712
640 0.8336293664027516 -0.45475395531727764 0.41455926670626025
839 -1.8502712101371532 -2.9018116509934098 3.669175190834501
1039 -1.7801446542333215 0.8001578045285758 2.1265396305551354
1059 2.834850635317538 1.5314296554458888 2.0615711639200507
1259 0.4117006314147241 -1.814896336703865 -2.5722790904251553
820 -0.29751523965147186 3.0024265300655193 0.6548702034369578
840 0.5606791054704044 -0.196960191019591 0.44223972898485914
1040 -0.5885705942951579 1.431041798627408 -0.09317253562902694
1020 -3.0795044973622767 0.30099513803071193 -2.23425886648937
1239 0.2803433138883055 -0.8209776541151483 -1.1063710083626788
1439 -0.8481541165704513 -1.6740665216553807 3.4929993023337533
1459 2.1039867608521123 -0.39492613318770975 1.2825686638490739
1220 -2.842300562652352 -0.21302829467373363 -1.1906405424998308
1240 2.138101427187276 4.347174004673363 0.5063773719721466
1440 -2.946222236653978 2.462950341952541 0.553853523006619
1639 -1.561571621108607 -0.37880392802824975 1.8154013337702977
1659 1.368784487291624 4.5687489725771835 0.8467212856694665
1859 0.6522602981300072 3.526501444720033 -1.394062352632444
1420 1.07191381179936 -0.05183381756381658 -3.151202372808674
1620 -4.294519210593267 3.4155311341365118 -2.5100197751456004
1640 1.26352952951191 -0.6546088866422404 -5.354791812608334
39 3.104489675287801 -3.375681671888982 -1.3057613675477397
1839 -0.8023922097138555 3.079019350759618 -1.9416043875636133
59 1.245591489248398 0.0025547201297948345 0.5984674725935899
1820 -0.18594580191153431 -7.132424634302964 1.1943579225693235
1840 -1.1870728957466736 -2.589894168693876 -3.204417904580774
279 -0.26355046885789174 -1.5619578981315336 0.7789561547145363
299 1.5936786017545865 5.21037168623926 -0.32482923644787937
499 -0.2636924808459676 6.162010874797942 -3.741245916783338
60 -0.037597306850454176 6.052306215155012 3.1896642145569025
80 0.21587489842254284 -0.29342129737260325 -1.0705394361007552
280 -0.7919722438976612 -1.8775466777122627 -1.202766168957246
260 -1.6521075375288574 0.7863948883482487 -0.6511136687924052
479 -1.5453578361813918 1.9474095451386304 -2.8573537026493865
679 1.0280860601756567 0.9987008540682808 2.1851378856579604
699 0.29535483549787694 0.9135896322044286 2.5837052199442185
460 -1.1037124370309197 -2.101654093620535 -2.5787752578455096
480 -1.9620189173028353 0.1387788767400327 2.6545888401971243
680 -0.6248398769036383 3.69692315968077 0.9968767066507372
879 2.465661030144259 -0.5284852245702762 2.428390056700256
899 -1.6111007467422638 0.9736776263072986 -0.7151510695515158
1099 -1.0108099388986937 -0.4726405549104006 -1.0714546824206592
660 -2.326211008822615 -3.4853922346326947 -0.2959079753684753
860 -0.7548304605247305 -2.5500360529312407 4.02035994531011
880 -2.9338945907826055 1.366960931076681 1.0007280121077973
1079 -3.013902545820002 0.5174693399474624 3.971546884316259
1279 4.409123171139734 -2.216248005541122 -2.783151338826632
1299 -0.30080429708997464 -2.7834318567613807 3.927002049935155
1060 -3.721820292855072 2.711143566196385 2.268134544910296
1080 3.4543539005296795 -2.105132994696791 1.9500144340163372
1280 -0.21873305726131503 0.619203223559079 -0.7466707708056631
1260 0.4809220545018218 4.839665217867486 -1.5722454793148817
1479 -3.1962832411366473 -3.770417376112838 2.80479438564188
1679 0.0010425367096595021 -3.0807221666216944 -3.166317153546719
1499 -2.2602868327665093 -1.18371041695142 0.6942450683539179
1699 1.6701927789517728 -0.8025328049313295 0.30620985459463357
1460 -1.6282602567732118 4.788680277097581 1.0304084487444032
1480 -0.2856382350315359 1.9953115283383498 -1.0728478555516978
1680 0.24108267462048852 -1.6517328269873666 -0.9944479459965558
1879 5.171684901051439 -1.5176384787254702 2.7077810671194245
99 0.018577028316491977 1.4054500031016992 0.5359711287731764
1899 1.816935817900639 -0.8416997946340525 0.6968265843984506
1660 -0.8143566266881399 -1.1558208312251121 0.065453810667202
1860 -0.2668968656292185 0.7420964403782743 -1.0345339476935156
1880 1.3166895126693643 -0.1744954462027397 -1.399631744816265
79 2.290296549036797 1.0731183283929562 1.9407304751767076
339 0.06604354158202153 3.936032007289236 -2.7682683181334475
100 -1.6595163040527467 4.121508241168097 -1.2288706844609525
120 1.5909405429547183 -0.07157538892589685 0.5231080539320799
319 -2.9914353626285783 3.639566814348233 -1.2840650604827166
519 0.17352721918837838 0.06143436004638502 3.1067301333023867
539 -0.7966033842452376 0.42861762989236785 -1.0698224253051005
739 0.14072955989027802 0.5665942117101369 1.3029984956172542
300 -1.5349796928437405 -1.6491298154026677 -0.6920380387126832
320 -0.3211539114028728 2.4377815221349306 1.5214683414383705
520 -0.64476116947021 -2.2085715501036014 0.08781164300595985
500 -2.06338437146662 3.757262385123551 1.5554918055513156
719 1.1869500604870762 0.8931439794965523 -1.3664365267518024
919 1.277947885274738 -1.3888344412483031 1.6597348865286536
939 4.379692253106953 -1.447342716958802 6.077689585456845
700 0.6386949462171693 -5.023603963385224 -2.7689680524015547
720 -1.2151313371850965 0.8832027136569355 0.5713910925352371
920 0.4372460800039277 1.5930449344773996 -1.7249486947557802
1119 -2.3282514881175755 1.0946126431152146 1.656634174355945
1139 -1.3143984947362863 -1.0382762264995653 0.7391532854927623
1339 -0.09490038331067185 1.4899526488240529 0.14672708973171758
900 -2.35493058826822 -2.2241671259147617 -0.49686966799623894
1100 -1.272246792669874 1.8743601543225303 1.1988331924792321
1120 1.8562797616629543 3.5599070257185126 -0.6154111984603384
1319 -0.6495701888467018 3.6399730192758173 -0.9161494267867822
1519 1.6280823933119826 -4.5569987367477705 1.569204742523109
1539 2.7646491467490293 2.6338562627851974 1.4000432882879978
1300 -0.6494619181117242 0.6243052700421069 4.786437210995481
1320 -0.9598041742648226 -2.6251405481901693 2.343448169871437
1520 -0.4886403922602157 1.1761467730852968 2.6288955707174653
1719 -3.4238248745482185 1.9731636342697416 -1.058781063707253
1919 2.7795190985714715 -1.5018994951100215 -0.11370863366399171
1739 3.49954370563545 -2.1122437866422232 3.486904048548819
1939 1.2793245955731452 0.3124363268233565 5.599718290276457
1500 -7.0318257051354545 0.070143177728168 2.719945476130578
1700 3.05339000731974 2.169869038731891 2.7179952448427853
1720 2.1926287817093693 -0.3111393834267637 0.9339698960579544
1920 0.061916722580536286 -0.739454479805062 3.545222058768213
119 -1.532704419584104 -0.0681283320336441 -1.381072136252553
139 -0.12293033521692859 -0.7715539148205006 -1.6967262093336246
1900 -1.5656169195005674 -0.03477920321201139 1.434799527490572
160 2.2982252496017357 0.7396526745172762 -3.2426450040329176
359 1.2882075441184282 -2.7445611531332568 -1.0692039573060184
379 2.1332634069838647 0.05449350912048966 2.244344616361099
579 2.907883164479624 -2.3686138301002475 -0.9933489712658359
140 -0.8928027137470202 -2.307813456154136 -0.4539657263331571
340 -1.1809761961852163 1.1859034547807725 4.408344487169735
360 -1.7618098192197997 2.112303842705697 0.19537863920577295
559 -2.3406235981762977 1.0468569789845328 -3.89195299332184
759 0.5963697858788732 0.09183717149349875 -2.8266444182445296
779 4.5674011270353 3.920661359792586 1.7561948518697026
540 1.0069865755575438 -1.4088370421901577 -1.8626803106429204
560 -2.6151298427747913 -2.2297985081985514 1.0439037193959426
760 4.292130415548122 0.8228526186891141 -0.9005652208471644
959 -1.8124792274448884 -1.5864865634382828 -0.03506075670584335
1159 2.7461134044633173 0.5458222096965218 0.8144400514414314
979 -1.3370388318060686 2.365293058166875 0.5086707940457713
1179 0.14656166454535294 -0.750008445763079 -3.0635990438440004
740 0.17869460695289352 1.1688408274409374 2.9584864621757467
940 1.0788125711583638 2.050393487559705 2.495861446154961
960 -1.3642014196762102 -0.01414117248117018 -0.5590774555983257
1160 -0.09689358760674015 -2.4217088075042934 -1.8694258562626975
1359 -3.359782387202504 4.130254151072711 -1.7975192559069542
1379 -0.8549545797380073 -3.227392955829181 4.189101006302345
1579 -1.8541435156897716 1.7890181832547247 0.545179920278908
1140 -0.023845012786203396 -1.1453433980454162 -0.7522515580097279
1340 -1.2498500173230076 1.9658056396977872 1.2968346694546167
1360 -4.723016931312755 -0.10826971317798756 0.5398701418382342
1559 -0.8101495538354359 0.9365383096544989 -0.06501140341612693
1759 0.3362240239386077 0.752760637028581 2.8092797046205282
1779 -1.4391899545834768 -0.9154734259867021 2.894128257992859
1540 3.2680644663091547 0.860785379437407 0.687004481738872
1560 1.506653046104643 2.2639960418162874 -0.323490275643437
1760 1.5578707108228174 1.1699643630243008 -0.9974723478791423
159 -2.0425374651627908 -2.6912430766388833 -0.15240419293266091
1959 -2.8067623813465388 1.1176079903595202 1.8738499314226054
179 -2.108035253515864 -3.100763715622323 1.4407405569183034
1979 -3.983785232916194 -0.9170034906866974 0.07208624403583887
1740 1.2070606038323886 0.019697012573222223 0.11016489582749732
1940 0.9090901031253974 0.4129010084890919 3.846782365472215
1960 -1.7273263308381253 0.45972242143923336 5.153340090600102
219 -1.5792970868421274 0.20616790107960317 -1.1064005433028936
399 -1.365173867256273 -2.7875825879803005 -0.045259533042403495
180 -2.1638459693113608 -0.744887938086071 4.646148287048826
200 -0.05244822099756644 3.323545856770313 -1.109780841783843
400 -3.422217842811175 0.15051352539413726 -0.1438197325503191
419 -2.582319942134631 0.29188198568542323 1.411707758021439
619 -0.24619868859957827 -1.1579703097973502 -1.1667193394760456
599 2.184177520594577 -1.9899787325340272 2.7158133421284316
380 0.856774906744891 -1.299467208297869 -1.5084901256871175
580 -0.7030216190915819 -1.966319763445904 -1.2386062884738944
600 1.2470729718353692 -0.8848775189225428 0.9059621065720616
819 -2.063342284572128 -2.450316769117234 -2.10477220804239
799 3.490148369032748 5.765768924447585 -1.59863137439358
999 -1.3181323256787096 -6.422816894002055 -3.9593421037067698
780 2.1201256193956755 1.308036062562576 -0.719571175739153
800 0.10467296500193984 -1.2235607481707667 -3.260872580140353
1000 2.3837584953862634 0.6774658174358935 -4.879273944765279
1019 -0.1287685126789837 -1.215922014123359 1.7072787125371884
1219 2.5064502788218688 1.539191201276584 2.0178985513697705
1199 -5.844017868978104 0.10126156070244671 0.9174042560396948
1399 -4.837681562306679 -0.4159047682283954 -1.1982409033753803
980 0.8363270433355346 -1.1315926215939136 2.202800819540182
1180 1.2144596037869524 -0.44111856872818284 -2.3978545527045814
1200 -2.0158697530530594 -4.316343971780646 -0.32684615394550665
1400 3.0999500227088452 3.4922655458998424 -1.2037857807258148
1419 -3.319806214312216 2.2817297476366902 0.7149472906573547
1619 -1.1839483503338128 2.4524570842545255 -0.856580017348327
1599 2.146892018191043 -0.23890960335841055 0.48729293546255487
1380 -1.4195251370767845 -0.07613308462347607 4.457428019127018
1580 3.522211376199217 -2.763758154318474 3.9576544002975735
1600 1.4803915338405487 0.8002845313008808 -3.000876210935389
1819 -3.923458463318666 -1.3808270011841617 -1.2192235997754117
1799 0.6870226386087819 2.330907375222056 2.868428972643682
1999 -2.137311545400375 -0.9967717772323823 2.9909588195529633
1780 -0.6665288805849106 0.340982087992926 -0.9894040910264333
1800 1.0296432698756786 0.5939414715685212 -2.007296703655136
2000 1.316387910258902 1.4825672461233508 3.822171456255993
19 -2.8896062502146984 -2.3805804005272186 -0.6657977376602121
199 0.09006033194146659 1.7758957314507444 -0.20177963547389638
1980 3.1635865458263606 3.326741234502559 -3.402448793197224
