LAMMPS data file via write_data, version 7 Feb 2024, timestep = 100000, units = metal

2000 atoms
1 atom types

-0.0004592779944605496 29.50045927799478 xlo xhi
-0.0003978355259075528 25.54814724716723 ylo yhi
-0.14992607117369872 46.94992607117305 zlo zhi
-14.750431738626272 1.3214634382942196e-15 7.47737064714838e-16 xy xz yz

Masses

1 47.867

Atoms # atomic

22 1 -1.3489179472882982 4.205956688856861 2.16549501315517 0 0 0
21 1 -1.3352353295353987 2.3478384560457193 0.02323507314326409 0 0 0
2 1 0.1862524068938613 1.617293841368311 2.0425562009618266 0 0 0
202 1 3.08040696945458 1.637844905684251 2.268649576814004 0 0 0
221 1 1.441612384520274 2.383512235496346 46.82074007248163 0 0 -1
222 1 1.5749446938565042 4.091101365267156 2.125942754753296 0 0 0
421 1 4.46072330657129 2.5914580098240543 46.78440136333546 0 0 -1
422 1 4.25341866070184 4.212846645898051 2.1777339310218076 0 0 0
201 1 -11.884473798094552 25.489070020987825 46.945277796688316 0 -1 -1
223 1 1.5561627149556456 2.5318577578503985 4.470203209789941 0 0 0
423 1 4.505823370544451 2.4986970842145557 4.449181748963178 0 0 0
443 1 3.097659042668902 5.002369171316295 4.526231210544628 0 0 0
402 1 5.954069967602487 1.7858942986008197 2.1016837274268654 0 0 0
602 1 8.80625467470078 1.7324892085384165 2.1840992542075446 0 0 0
621 1 7.422004322049756 2.5567728883219303 46.81758821399312 0 0 -1
622 1 7.347384473958034 4.36654162499538 2.185205522562008 0 0 0
623 1 7.32983562535655 2.5664182598012917 4.558220052932615 0 0 0
643 1 6.013943236474077 5.1009969226089495 4.544691078893122 0 0 0
802 1 11.83671457411061 1.7444877587067997 2.1290878583987083 0 0 0
822 1 10.141732052357934 4.373772855922417 2.131443494618431 0 0 0
1021 1 13.36716134726302 2.6519184822661033 46.76165048856694 0 0 -1
1022 1 13.299086294652357 4.195833393596366 2.093538110364753 0 0 0
801 1 11.844462281936218 0.04857084483923643 46.885154963826736 0 0 -1
1023 1 13.22243113012579 2.484968404221548 4.4874373592131676 0 0 0
1043 1 11.694657802440462 5.1364382283305945 4.5098550907371395 0 0 0
803 1 -2.8787669868640116 25.443287675717173 4.648729368874287 0 -1 0
1002 1 14.766813203861284 1.7157041102566506 2.244969125498058 0 0 0
1202 1 17.6975191558913 1.846582202109678 2.2730528129059846 0 0 0
1221 1 16.434044492167374 2.698470081911414 46.88631423283147 0 0 -1
1222 1 16.264946762153073 4.322676499204355 2.2270682037347878 0 0 0
1421 1 19.23182882667338 2.741427286920899 46.83146369833804 0 0 -1
1422 1 19.277151765411396 4.364226156485208 2.1637798846192715 0 0 0
1003 1 0.009372443485013229 25.426495786257433 4.656745463373689 0 -1 0
1402 1 20.52246172186706 1.686908045248055 2.0001324061575785 0 0 0
1602 1 23.475935391386535 1.7793105233952704 2.207526642962389 0 0 0
1622 1 22.20040791873008 4.361808601559521 2.032369972828223 0 0 0
1603 1 23.599377818411398 0.03773944258786883 4.487494754089015 0 0 0
1802 1 26.576933102159174 1.6538759700590067 2.132608010331233 0 0 0
1822 1 25.076731142856445 4.159353817033175 2.298954438440036 0 0 0
1801 1 26.43982780631282 0.028611645546568778 -0.0617529962079449 0 0 0
43 1 26.53793873490985 5.1193748795016365 4.473713646884949 -1 0 0
1803 1 11.820469439415026 25.449337680573876 4.578435836668733 0 -1 0
42 1 -2.981230160579952 6.832268818372364 2.2121542360295017 0 0 0
62 1 -4.125136809980619 9.403222501001434 2.2810730719703103 0 0 0
262 1 -1.39802585846902 9.357700941596235 2.185131817925008 0 0 0
242 1 -0.0014261372520642428 6.864047940235874 2.1712757736157537 0 0 0
263 1 -1.379994439817511 7.511892415247168 4.4760321904387075 0 0 0
63 1 -4.342527033861792 7.802104453679495 4.514943509131884 0 0 0
442 1 3.0378489871135343 6.720051165539247 2.0567986013357533 0 0 0
462 1 1.5707339610821673 9.398673518318706 2.0859498325790304 0 0 0
662 1 4.480829647254446 9.23201573389048 2.1620797803534226 0 0 0
683 1 2.8746864427217993 10.141892919859536 4.504075756525663 0 0 0
841 1 8.686064630087667 5.048780501191656 46.76590256742753 0 0 -1
642 1 6.001075495071824 6.846048907600354 2.1293283109125523 0 0 0
842 1 8.966751555036488 6.905718659139552 2.10419243185117 0 0 0
861 1 7.301180575749023 7.666323138015561 46.92398786744893 0 0 -1
862 1 7.387247868710016 9.48309690800337 2.311538591425608 0 0 0
863 1 7.348873686158959 7.75171415949842 4.506668417390128 0 0 0
883 1 5.870640133186128 10.06060964160529 4.596204376192066 0 0 0
1041 1 11.659891896690153 4.984318674101566 46.8900426132799 0 0 -1
1042 1 11.703832133712872 6.8803079705838 2.0196848331223545 0 0 0
1062 1 10.444939196148061 9.391542168339043 2.2793710060645536 0 0 0
1262 1 13.265295007983822 9.314978474386763 2.2520664092572154 0 0 0
1242 1 14.675765849248119 6.930458672536738 2.12497331688134 0 0 0
1442 1 17.80420654288013 6.880115895688734 2.1831040677296945 0 0 0
1461 1 16.223684018484988 7.749449750967821 46.90636460530354 0 0 -1
1462 1 16.306433433694927 9.455676872883563 2.212726366873751 0 0 0
1661 1 19.144407719253188 7.8254096911851105 46.88440905628947 0 0 -1
1662 1 19.152101766601454 9.538831521799635 2.195849082641632 0 0 0
1463 1 16.226885999130033 7.675116821854648 4.499687019503265 0 0 0
1663 1 19.136031666181474 7.748330360449157 4.41191433258767 0 0 0
1641 1 20.594617286321075 5.219483485908037 46.863460734733096 0 0 -1
1841 1 23.58881713595367 5.235893066155518 46.923243675777854 0 0 -1
1642 1 20.702598283988145 6.8246094809145825 2.0912968463010135 0 0 0
1842 1 23.692482019076678 6.9580292998307725 2.1833844986534507 0 0 0
1862 1 22.191761680248526 9.472710644624225 2.2260447063792923 0 0 0
1843 1 23.57987769490991 5.137702357710602 4.587580131137783 0 0 0
1863 1 22.096532612245085 7.7541811543621835 4.5179519077000805 0 0 0
82 1 -5.9379057724928925 12.038843495699997 2.1450457773044747 0 0 0
102 1 -7.430730341945711 14.577003117135469 2.1773741053616096 0 0 0
103 1 -7.365903463408102 12.852851474168997 4.574929764700832 0 0 0
281 1 -2.937743277029889 10.241976258218964 -0.059580565450213535 0 0 0
282 1 -2.7989775008909437 11.934180538967063 2.2692865910059368 0 0 0
301 1 -4.521385894620787 12.810468767373125 -0.0630238058514195 0 0 0
302 1 -4.340874583119124 14.617765103074225 2.2188211592921063 0 0 0
501 1 -1.5015643250866537 12.841567490304433 -0.11751286412484502 0 0 0
502 1 -1.3956832789110276 14.528109712306911 2.0639449465663207 0 0 0
503 1 -1.2588138726978897 12.753031539236803 4.527277522344153 0 0 0
681 1 3.0781779668471754 10.284685729204549 46.945200957255636 0 0 -1
482 1 0.11166072499871589 11.961489853563325 2.084553304112048 0 0 0
682 1 2.9664759070585367 12.03441895671249 2.325603524056468 0 0 0
701 1 1.399484369380858 12.78299681796849 46.89755340086164 0 0 -1
702 1 1.4185640961749773 14.44925664416351 2.114050959651444 0 0 0
901 1 4.513787696778201 12.661222584020498 -0.14817383959973263 0 0 0
902 1 4.382373232121667 14.504878272292135 2.1490805203990693 0 0 0
703 1 1.517292293582858 12.82853001943127 4.6145922912191 0 0 0
903 1 4.460712725585429 12.748169298288298 4.677873169772998 0 0 0
882 1 5.789494137257233 11.938758000906834 2.25855638987744 0 0 0
1082 1 8.845672387241903 11.982110856547477 2.1976359418558755 0 0 0
1101 1 7.33561393850534 12.668408724236894 -0.11985153471265875 0 0 0
1102 1 7.356560985261098 14.42524365534998 2.23134567166269 0 0 0
1121 1 5.903711704468474 15.342537545334617 -0.08579711432879088 0 0 0
1282 1 11.897137308831406 11.816306864925618 2.1367605310118427 0 0 0
1301 1 10.267192759054671 12.731651914580466 -0.0032376163198361285 0 0 0
1302 1 10.375068820407646 14.309356348703917 2.2432246408618086 0 0 0
1501 1 13.29486099341999 12.863463987980511 46.87814375803252 0 0 -1
1502 1 13.3354611263979 14.513554568941586 2.2754111186000436 0 0 0
1521 1 11.84613789282783 15.299389192246501 -0.032492272006340125 0 0 0
1503 1 13.41663664320881 12.828713902971572 4.571919814712653 0 0 0
1523 1 11.858448886981309 15.347745551661674 4.584004173336376 0 0 0
1482 1 14.914531966388177 11.874280430519166 2.1622224451235437 0 0 0
1682 1 17.848138623275005 12.07339917444997 2.2088715602303584 0 0 0
1702 1 16.218689577725577 14.635474811068654 2.3366280110907947 0 0 0
1902 1 19.26422075914207 14.602362847191081 2.21981994704559 0 0 0
1683 1 17.73426628252888 10.249930694020906 4.545197937523847 0 0 0
1703 1 16.522101310930672 12.761272347809461 4.5681575326348565 0 0 0
1881 1 20.59705308052054 10.279416888928495 -0.01025129077285497 0 0 0
1882 1 20.70828867136187 12.020356378705719 2.146099274841371 0 0 0
1883 1 20.65780905529944 10.251527342275656 4.4684135268957865 0 0 0
142 1 -10.338779055994197 19.680155360979825 2.2832285716971628 0 0 0
141 1 19.107038393230738 17.928010888746073 -0.0359551483839682 -1 0 0
321 1 -5.849669873294355 15.443529092280826 -0.09481478448441771 0 0 0
122 1 -8.748241683841064 17.232001832714282 2.1958310005860366 0 0 0
322 1 -5.847000239591062 17.05732899740825 2.215156915899558 0 0 0
341 1 -7.322556836863 17.949286353907212 46.92043391895855 0 0 -1
342 1 -7.18143497863538 19.706599969350215 2.2498314133795154 0 0 0
123 1 -8.815586504791687 15.441648962397874 4.54814004716163 0 0 0
343 1 -7.2406643710157805 17.931228133527945 4.545242536016164 0 0 0
521 1 -3.0386930126204215 15.491704527326643 -0.10061941780787893 0 0 0
721 1 0.06406675537646887 15.294151608085697 46.94534229863231 0 0 -1
522 1 -2.9510026642496046 17.204515484888077 2.3018421107648823 0 0 0
542 1 -4.438845715010338 19.630332111949343 2.18492469256537 0 0 0
741 1 -1.4609498420375875 17.908685838349122 -0.1340908000303625 0 0 0
742 1 -1.3620745212079992 19.578150682500848 2.116238963429904 0 0 0
722 1 0.1499774196508597 17.065714213161662 2.175091886171316 0 0 0
921 1 2.8926723034560626 15.42272270049186 46.92186815152722 0 0 -1
922 1 3.1110166496439184 17.05051266538048 2.166007982708755 0 0 0
941 1 1.4792365442753734 17.92620307282715 -0.021136283483328244 0 0 0
942 1 1.5510853874930657 19.645833870393922 2.208489430317952 0 0 0
1141 1 4.58986828878793 18.04231450474495 -0.11734164710206936 0 0 0
1142 1 4.544712304233419 19.72513088158931 2.314600523870578 0 0 0
923 1 3.0511497424776444 15.35592962002293 4.526203578865896 0 0 0
943 1 1.4429254657741295 18.011778661311666 4.426002633302009 0 0 0
1143 1 4.319997011895033 17.918695551243268 4.449404021906748 0 0 0
1321 1 8.89707187950517 15.24039345577703 46.94406341228361 0 0 -1
1122 1 5.89755289124022 17.109975939880393 2.266147411575501 0 0 0
1322 1 8.827511894675359 16.915361732749616 2.338769937205211 0 0 0
1341 1 7.3821975573634955 17.811316425884257 -0.09329880079490717 0 0 0
1342 1 7.464446670628057 19.58374741932736 2.1563785112960767 0 0 0
1343 1 7.39346830409316 18.01274100492376 4.569572350755372 0 0 0
1563 1 9.013110491931833 20.484044297076856 4.570108024355302 0 0 0
1522 1 11.867970742551096 16.947337631061878 2.273700810705433 0 0 0
1542 1 10.337456988889791 19.708369848605997 2.2526823286489734 0 0 0
1741 1 13.256975849835557 17.81739356761139 46.91119842203592 0 0 -1
1742 1 13.324985591538887 19.605572516613286 2.2042442116827865 0 0 0
1543 1 10.197533617754804 17.894534074746517 4.609555951588041 0 0 0
1743 1 13.353926389009823 18.032898423414863 4.5240683901400764 0 0 0
1721 1 14.752662926631855 15.383392455242044 -0.033827880204687674 0 0 0
1921 1 17.637795438594125 15.449485453065924 -0.11563802359712122 0 0 0
1722 1 14.624054144348001 17.132512779870098 2.2555821688856934 0 0 0
1922 1 17.781345724117926 17.13577255852765 2.2058390059013906 0 0 0
1941 1 16.003128741614923 18.020948412123225 -0.07335633770999422 0 0 0
1942 1 16.132730020052158 19.576130566642988 2.4012620599986327 0 0 0
1923 1 17.777652984253166 15.380697216915928 4.630008499426968 0 0 0
143 1 19.1934857758497 17.82107875684151 4.663999735958762 -1 0 0
161 1 17.58718463304516 20.426291799573626 -0.09741492043542618 -1 0 0
162 1 -11.717549515606345 22.091512466348973 2.1813865961152357 0 0 0
182 1 -13.36091952182952 24.620807028573964 2.154229982603705 0 0 0
382 1 -10.351940964027298 24.670381617103935 2.0762084508517544 0 0 0
163 1 -11.73796038186602 20.446425993018487 4.551863623082647 0 0 0
383 1 -10.19177813255701 23.037562705578686 4.441163298867023 0 0 0
361 1 -8.81373411518458 20.41991366058639 46.89251258139498 0 0 -1
362 1 -8.9154511918057 22.012391905036793 2.2031359457524347 0 0 0
562 1 -5.860720588264408 22.287843336852696 2.1916720623295918 0 0 0
582 1 -7.282078300940966 24.792038567497244 2.184320079856549 0 0 0
761 1 -3.0363331820810444 20.460145059779492 -0.08792407057247034 0 0 0
762 1 -3.1092921689098176 22.172458330615747 2.231484262323452 0 0 0
781 1 -4.273165280412651 23.051629857162645 46.94869191635959 0 0 -1
782 1 -4.437241258467838 24.707834391174366 2.2373071444236037 0 0 0
981 1 -1.5572323185161316 23.141775574973664 -0.065452603104317 0 0 0
982 1 -1.5641888427260362 24.648446765446018 2.230259682774923 0 0 0
962 1 -0.06655270458248623 22.168834225533452 2.2811591073345907 0 0 0
783 1 -4.454896049458236 23.143374069834174 4.61525865818326 0 0 0
983 1 -1.5072843699295715 22.960574714087933 4.597848428801244 0 0 0
1161 1 2.975000427650247 20.409859321986005 46.92871020079963 0 0 -1
1162 1 2.900309947171552 22.220693846943504 2.1845028197187886 0 0 0
1181 1 1.4138013268350669 23.12754166760599 0.03952290764131369 0 0 0
1182 1 1.3598611734101365 24.699651529578382 2.132098508161395 0 0 0
1382 1 4.269437816568214 24.646573343966708 2.189741400802201 0 0 0
1183 1 1.5778111333388483 22.95242277161097 4.497519854807482 0 0 0
1383 1 4.402650924479911 23.058889338298464 4.537069018089655 0 0 0
1362 1 5.97023284089507 22.32272134305026 2.1332520980928056 0 0 0
1562 1 8.832107790690365 22.21777620107833 2.4058710465756366 0 0 0
1582 1 7.167130053775972 24.712851970122742 2.273865624271423 0 0 0
1363 1 5.9993945219507 20.37308989959226 4.595991995692308 0 0 0
1583 1 7.373367374086598 23.003645949829803 4.600066013705522 0 0 0
1961 1 14.654518646676358 20.492925645059266 46.92701409458637 0 0 -1
1762 1 11.84428267934446 22.101173165706207 2.3307949125846683 0 0 0
1781 1 10.29412629780802 22.82681551541593 -0.10471465538429492 0 0 0
1782 1 10.179577775679803 24.612642223205285 2.179616274260399 0 0 0
1981 1 13.157594752063074 23.056097840865277 46.94377833967545 0 0 -1
1982 1 13.208726311005856 24.747188178531573 2.2371245742692545 0 0 0
1962 1 14.797222889825507 22.125252811370395 2.1944093274160523 0 0 0
1763 1 11.861229958188545 20.31625254199676 4.567889810837193 0 0 0
1783 1 10.426617675106968 23.035349473894193 4.740351051369412 0 0 0
1963 1 14.672754023377584 20.49649390871393 4.6750127933988 0 0 0
183 1 -13.244345750680855 23.052937137498404 4.536367947384127 0 0 0
24 1 -1.5663851549051748 4.1082879861621855 6.785261565935154 0 0 0
3 1 -14.734720443731602 25.5303297950066 4.560550563870158 0 -1 0
245 1 0.14955772318660834 5.069932163638361 9.207160276969752 0 0 0
4 1 -0.048480271625026244 1.6846377672783666 6.85247471637693 0 0 0
204 1 3.048707388937145 1.6794230857687518 6.703953591451396 0 0 0
224 1 1.3722259954820435 4.180390344741841 6.800128904032308 0 0 0
424 1 4.482662923470475 4.463652018917722 6.864229894765949 0 0 0
225 1 1.540581285066634 2.5352340595868905 9.0777389229025 0 0 0
425 1 4.464896742933961 2.6938194392297827 9.245766383040579 0 0 0
404 1 5.820253546241118 1.7003999982558078 6.941802992809132 0 0 0
604 1 8.890151664038829 1.9201964822113848 6.917081772212479 0 0 0
624 1 7.506549021014906 4.3988606139567485 6.750829422293321 0 0 0
843 1 8.739512401520992 5.240896209500791 4.5139663597209365 0 0 0
625 1 7.37068204025913 2.657692264117569 9.271856354520414 0 0 0
645 1 5.948484271470158 5.297410737803618 9.11074749794877 0 0 0
845 1 8.788210560252745 5.182467725287678 9.065219306559971 0 0 0
804 1 11.627039743577706 1.7002954930396212 6.901480926542989 0 0 0
823 1 10.160221058173713 2.633126820572519 4.510925742232285 0 0 0
824 1 10.376524813569821 4.5410728528346525 6.77767503596317 0 0 0
1024 1 13.21667712775614 4.30066741004702 6.797288131136259 0 0 0
825 1 10.36817372428962 2.817988196536766 9.253184067156907 0 0 0
1004 1 14.707600398042935 1.641495424284147 6.993519881392522 0 0 0
1204 1 17.724378237608377 1.6100060710324953 6.822932183664285 0 0 0
1223 1 16.191986561002828 2.434016555809503 4.660765946351575 0 0 0
1224 1 16.133906628062 4.2593474153297715 6.817993477897615 0 0 0
1423 1 19.12328283240648 2.632905737244333 4.594930722188901 0 0 0
1424 1 19.2457108268569 4.244201702417338 6.89012218424825 0 0 0
1443 1 17.674423186663574 5.098793147365396 4.561206168162462 0 0 0
1425 1 19.164998639975096 2.6362807410286786 9.161827857184514 0 0 0
1404 1 20.644463438897446 1.7770812206740094 6.904475156402303 0 0 0
1604 1 23.630817746156204 1.752174474993934 6.9556924381260945 0 0 0
1623 1 22.056288348529606 2.5474997506559376 4.436735916397975 0 0 0
1624 1 22.095492940514312 4.268082348313199 6.860334375779343 0 0 0
1643 1 20.58144626265659 5.141412342431504 4.611629439819113 0 0 0
23 1 28.020480807793795 2.4727333311745947 4.39444312667898 -1 0 0
1804 1 26.637600816907117 1.7399267906810008 6.897357768798079 0 0 0
1823 1 25.0321246727667 2.51693628783964 4.610239941117205 0 0 0
1824 1 25.174783850239905 4.3851194920280605 6.934408786133311 0 0 0
85 1 23.659227270102434 10.107127292955186 9.387679331355352 -1 0 0
44 1 -2.8384958558735383 6.841045617330822 6.90743882955311 0 0 0
64 1 -4.303442189409531 9.484031327888339 6.845107695118279 0 0 0
264 1 -1.4808768688891163 9.234893263773525 6.775164514988411 0 0 0
244 1 0.017450268703160993 6.695144522298552 6.827840800690988 0 0 0
483 1 0.039937383222126276 10.07660415281008 4.456322882708423 0 0 0
45 1 -2.7755282804496226 5.112986811371875 9.211917103550535 0 0 0
265 1 -1.4844585787800757 7.572104162238889 9.214891637759946 0 0 0
243 1 0.03778940896491858 5.029289063946166 4.461027428619119 0 0 0
444 1 2.984951762951418 6.780493318387611 6.878857036413443 0 0 0
463 1 1.516445477804201 7.446986624096001 4.375682260289491 0 0 0
464 1 1.4565416667294289 9.314636784074493 6.912788185743688 0 0 0
663 1 4.48835766602556 7.640372559388923 4.509146805860203 0 0 0
664 1 4.476469781023348 9.309331638124014 6.899486274814092 0 0 0
445 1 2.8229540142277774 5.0954892366140925 9.232063401061088 0 0 0
665 1 4.32810393009862 7.710866345236353 9.257193668228751 0 0 0
685 1 2.8471233451961484 10.1381871598023 9.205144782830809 0 0 0
644 1 6.022098183290374 6.957694461579223 6.997794779117295 0 0 0
844 1 8.951114081325148 6.906830705403655 6.916082575158354 0 0 0
864 1 7.533649958213131 9.304789683424087 6.969821117701709 0 0 0
1083 1 8.90338433607919 10.31003375685676 4.57100643352573 0 0 0
865 1 7.36819877363945 7.821832551547288 9.26197665534183 0 0 0
1085 1 8.97599373085139 10.206804792576303 9.29277934371493 0 0 0
1243 1 14.669462494563481 5.027919114603652 4.523545999722544 0 0 0
1044 1 11.928263557639623 6.891254971220783 6.965755407902731 0 0 0
1063 1 10.387086390181517 7.627081042057488 4.520605390358079 0 0 0
1064 1 10.389456158380943 9.368605634185222 6.939747848992799 0 0 0
1263 1 13.34784924053286 7.577390618907693 4.60790648200221 0 0 0
1264 1 13.449705179883969 9.347465805063662 6.957460845483913 0 0 0
1283 1 11.974221912306804 10.31696655923342 4.6086611519514 0 0 0
1045 1 11.756102141252393 5.287766428666393 9.154600262051332 0 0 0
1065 1 10.453788802637485 7.702113752866225 9.26271393901667 0 0 0
1265 1 13.430111932096422 7.634507797634539 9.241107514569109 0 0 0
1285 1 11.815472271428627 10.147235421863185 9.297201899663825 0 0 0
1244 1 14.851049395721182 6.87330025716581 6.94138767189072 0 0 0
1444 1 17.76678565308886 6.750831474121739 6.721167481162789 0 0 0
1464 1 16.347925272207398 9.328663184603043 6.991291013439505 0 0 0
1664 1 19.241821757937487 9.268464705255754 6.8155405779742075 0 0 0
1483 1 14.8199221040945 10.214322764889243 4.454298392917643 0 0 0
1665 1 19.34471612707533 7.64825496421954 9.1990427562909 0 0 0
1685 1 17.77854867812789 10.2226959534478 9.145963465361326 0 0 0
1644 1 20.703210196424237 6.886345386358662 6.8667605244327214 0 0 0
1844 1 23.54280477272065 6.955539799512833 6.783549564405565 0 0 0
1864 1 22.249645865345116 9.460508424770435 6.789138684227385 0 0 0
1645 1 20.692613112304443 5.243494824413563 9.28929772923412 0 0 0
1865 1 22.253580207421862 7.642687256366255 9.139531183353741 0 0 0
65 1 -4.341343719415499 7.622666532270991 9.035498386330453 0 0 0
83 1 -5.91964982520307 10.439819902005718 4.3905689927074425 0 0 0
84 1 -5.859470416757148 11.741401016387574 6.955849046877597 0 0 0
104 1 -7.396679291574017 14.581010463342347 6.956192095864449 0 0 0
323 1 -5.800293291943364 15.322630392961885 4.513153439095888 0 0 0
325 1 -6.029112295838363 15.337339138510758 9.312780271310436 0 0 0
125 1 20.392243172847543 15.342899537735365 9.383215217133454 -1 0 0
283 1 -2.8592203372406346 10.200760173559072 4.533169007420023 0 0 0
284 1 -2.9380685232870265 11.93782640518846 6.826384275995722 0 0 0
303 1 -4.329941927681711 12.852252478698212 4.59222176304242 0 0 0
304 1 -4.508610258660744 14.35347845646789 6.926771697233021 0 0 0
504 1 -1.4843909746596775 14.458155929141054 7.073266847203715 0 0 0
484 1 0.03687061428125669 11.822973017551105 7.041042176167579 0 0 0
305 1 -4.522850736813389 12.743244010779684 9.23765585445993 0 0 0
505 1 -1.6090655759189605 12.798056306051075 9.236583684760761 0 0 0
525 1 -3.0850716161868994 15.36988291225313 9.183779080067154 0 0 0
723 1 0.09814592768158382 15.552633590965224 4.528393542472679 0 0 0
684 1 2.97355789974557 11.952121497430644 6.800107987710551 0 0 0
704 1 1.4407840034808823 14.521519713622107 6.889992607867296 0 0 0
904 1 4.480316667043134 14.525066857468445 6.874529753937521 0 0 0
905 1 4.492847202538156 12.692605864935201 9.311406203062747 0 0 0
884 1 5.970053830439671 11.929092842147389 6.812784864040396 0 0 0
1084 1 8.893804868557593 11.921513193425413 7.060612948566149 0 0 0
1103 1 7.405850138621219 12.715075407842113 4.521439785365899 0 0 0
1104 1 7.331645101737113 14.509364492126233 7.001264238265035 0 0 0
1123 1 5.936297592065921 15.455592879551896 4.403048422129938 0 0 0
1105 1 7.244997415361352 12.718682977705159 9.219658097018772 0 0 0
1284 1 11.859590822260762 11.88691130391255 7.0374948218682825 0 0 0
1303 1 10.450051490987542 12.668560178148125 4.4071948592653065 0 0 0
1304 1 10.398767385670615 14.487690653795593 6.844053869588196 0 0 0
1504 1 13.182205099048172 14.488091943238569 7.132504924461364 0 0 0
1725 1 14.710840309516856 15.414180950695425 9.312329899758092 0 0 0
1484 1 14.819386084549851 11.856805642186506 6.889423459128505 0 0 0
1684 1 17.710113483561145 11.909560521296138 7.032967365124687 0 0 0
1704 1 16.226635933346415 14.43828210003057 6.960620231313562 0 0 0
1903 1 19.2212061291046 12.77606609794065 4.578869890345205 0 0 0
1904 1 19.243899436034624 14.529448120267173 6.975684741001604 0 0 0
1905 1 19.174589240621486 12.787241094599402 9.26602222521749 0 0 0
1884 1 20.675090721965162 11.948100411643546 6.8529702686317835 0 0 0
1885 1 20.690945441243024 10.183674335264245 9.339595936843983 0 0 0
105 1 -7.342666874700888 12.717798298649367 9.27478568165204 0 0 0
144 1 -10.314518262539922 19.657831968499757 6.944851751917744 0 0 0
124 1 -8.765334750853691 17.12708871713459 6.956232964956305 0 0 0
324 1 -5.984800164098737 17.05746372081608 6.914036009290521 0 0 0
344 1 -7.247016835599422 19.58593258629191 6.9043878560062435 0 0 0
563 1 -5.842259330729395 20.524667582507767 4.687756715500042 0 0 0
365 1 -8.752617827629424 20.398505706260558 9.270470782205063 0 0 0
565 1 -5.781640453054442 20.447329940487286 9.305179119345476 0 0 0
523 1 -2.7906417984744083 15.332049492783012 4.665760849439793 0 0 0
524 1 -2.9296065628898997 16.918533056078083 6.945827421370735 0 0 0
543 1 -4.519837120828405 17.83458100922052 4.692704351947832 0 0 0
544 1 -4.372170031258832 19.675241932536707 7.021080210178094 0 0 0
743 1 -1.5542699822482768 18.05549721340376 4.5050078785977865 0 0 0
744 1 -1.500235767118587 19.405649675269785 7.0393631121123015 0 0 0
763 1 -2.9993167438479222 20.41086956301207 4.515931899112249 0 0 0
545 1 -4.494404498991028 17.917095909400835 9.224027212971592 0 0 0
745 1 -1.450718124193404 17.825805959485272 9.307817553096163 0 0 0
765 1 -2.828308150086119 20.55628551233663 9.437985626433486 0 0 0
724 1 -0.0448754497113091 17.06332935081476 6.997488284074688 0 0 0
924 1 2.914964511484003 16.938001267393176 6.832430592131386 0 0 0
944 1 1.4659603724334629 19.52296224761068 6.942884067965119 0 0 0
1144 1 4.4856760655324415 19.536091779801097 6.780537098168148 0 0 0
963 1 0.044511729136999766 20.491302844132257 4.628290241134428 0 0 0
925 1 2.964924205263403 15.29133653177517 9.266042468964127 0 0 0
1145 1 4.365833201316649 17.808565222977137 9.250719809409418 0 0 0
1323 1 8.845677451537073 15.204436856551315 4.770815488099754 0 0 0
1124 1 6.002080977451815 17.07886776456443 6.9028818602092334 0 0 0
1324 1 8.844978408786291 16.964106493615738 6.96402047845535 0 0 0
1344 1 7.395672500973824 19.616819074298398 6.95799145190231 0 0 0
1125 1 5.878963190977089 15.364016484604756 9.452452786626683 0 0 0
1325 1 8.823256299696174 15.298928981048636 9.325669220858735 0 0 0
1345 1 7.336457436870749 17.897028714610947 9.252662230412504 0 0 0
1524 1 11.87009947708341 17.08671563106327 6.843580252100839 0 0 0
1544 1 10.428658750437418 19.585170584031573 6.861497045627759 0 0 0
1744 1 13.336460978132786 19.626989950079214 6.989694327715718 0 0 0
1724 1 14.607920653745762 17.136465689358566 7.0046736912543786 0 0 0
1545 1 10.19377536066215 17.913639428686878 9.240277385178823 0 0 0
1745 1 13.063531424007165 17.792750527994258 9.50555302883988 0 0 0
1723 1 14.933588460085955 15.449002131538863 4.752650920892595 0 0 0
1924 1 17.7329932906701 17.303531767706765 6.98908143187572 0 0 0
1943 1 16.25015467767342 17.87839007981438 4.7019705839079045 0 0 0
1944 1 16.3475937599947 19.574163545890542 6.972718454290912 0 0 0
1945 1 16.224273058243305 17.95544828697001 9.325387170930162 0 0 0
203 1 -11.665166584337072 25.54406921179558 4.62807017951537 0 -1 0
164 1 -11.557527898477876 22.173663889566264 6.886453341482582 0 0 0
184 1 -13.264424459927328 24.60765502137756 6.984101637151814 0 0 0
384 1 -10.225874808876567 24.64283173917932 6.90936016950452 0 0 0
165 1 -11.800024829036552 20.49956648323949 9.428619427685478 0 0 0
363 1 -8.793754605713008 20.52291545704901 4.635441742221391 0 0 0
403 1 -8.649440612105169 25.547004784915565 4.494666463519775 0 -1 0
603 1 9.082078981042933 0.03598734421607594 4.512149625016415 0 0 0
364 1 -8.640318250974534 22.131707885166307 6.881387226371497 0 0 0
564 1 -5.757304906991383 22.282525192427897 6.916822326970847 0 0 0
583 1 -7.237776957569335 23.080226483515993 4.508328194457776 0 0 0
584 1 -7.380477988329431 24.867843515910245 6.892739077675451 0 0 0
605 1 8.879429410151293 0.11425033492337493 9.31173954216785 0 0 0
764 1 -3.0016112600927425 22.043229987115737 7.06354719508449 0 0 0
784 1 -4.521522021198665 24.763612054835825 6.985916408500173 0 0 0
984 1 -1.5440390614364696 24.648212269838567 7.0346633315141744 0 0 0
785 1 -4.579303402307692 23.09180478867703 9.289090184264223 0 0 0
985 1 -1.4883928402448932 22.98679206280584 9.276125023738151 0 0 0
1163 1 3.0608118008311145 20.648664372426488 4.629215513140913 0 0 0
1203 1 17.708459783310687 0.022946763505909677 4.4254147757994895 0 0 0
964 1 -0.014264370199944114 22.197349958698013 6.853595023176351 0 0 0
1164 1 2.9969506477567354 22.135370014844995 6.946851821858107 0 0 0
1184 1 1.48866260972088 24.71224661902761 7.006663074473727 0 0 0
1384 1 4.399596737887613 24.748148165706077 6.92538382951915 0 0 0
1165 1 2.9183626780990477 20.442214836098586 9.227055679699992 0 0 0
1205 1 2.972539783729426 25.537780819281473 9.220721470483257 0 -1 0
1385 1 4.492258727006311 23.049492847713616 9.263875013447876 0 0 0
1403 1 20.57220232797131 0.04617198600782272 4.517756974766236 0 0 0
1364 1 5.816280183251839 22.28435214342114 6.945907242224218 0 0 0
1564 1 8.865391469815442 22.076182112137737 6.913456988618368 0 0 0
1584 1 7.27314130668333 24.66364739378338 6.923610465900207 0 0 0
1565 1 8.839730523136932 20.48175199105436 9.206860600666149 0 0 0
1764 1 11.963444499837044 22.24744232667365 7.035237789621383 0 0 0
1784 1 10.245869621888176 24.668364413213958 7.127562193470164 0 0 0
1983 1 13.427767002153432 22.96481373358096 4.439187787454033 0 0 0
1984 1 13.40897227714736 24.717938068024722 6.8859732758978405 0 0 0
1964 1 14.970971450820715 22.13329874662304 6.983210031180145 0 0 0
1805 1 11.781679548670763 25.531314439494807 9.131130108021384 0 -1 0
1985 1 13.180033050390547 23.071064488276015 9.34072002355806 0 0 0
185 1 -13.203655088391109 22.965029519219208 9.235151040948713 0 0 0
26 1 -1.2937295631346584 4.203100206213853 11.475146743497868 0 0 0
6 1 0.15692778316205624 1.6852450443134561 11.666948038941552 0 0 0
206 1 2.933010679519922 1.6820391746828736 11.601791050071508 0 0 0
226 1 1.4752576352405906 4.187191365786077 11.657783154441676 0 0 0
426 1 4.416853969087249 4.299126040085311 11.57022301137079 0 0 0
427 1 4.368516206650084 2.57110359962927 14.03995008203655 0 0 0
7 1 14.698848065577295 25.485042022524105 13.846790308028154 -1 -1 0
406 1 5.800069042166578 1.8322211868827913 11.577027150310325 0 0 0
606 1 8.871753238842858 1.6888051185018855 11.49528178057674 0 0 0
626 1 7.391928266930926 4.366129349588363 11.531918172541557 0 0 0
405 1 5.887938729131224 0.007230015950588889 9.363012520425112 0 0 0
647 1 5.867289382457532 5.266921798142743 13.862100650422963 0 0 0
407 1 5.889236790746668 0.14486918353611056 13.9027319227502 0 0 0
806 1 11.894230486064528 1.7111355645093138 11.488689957714666 0 0 0
826 1 10.159833940551882 4.361711037301568 11.542956336342765 0 0 0
1025 1 13.338041093479758 2.6858071222209943 9.188842266787221 0 0 0
1026 1 13.19830570250719 4.333293450962682 11.56013670892786 0 0 0
1006 1 14.907489717304355 1.8590153891942804 11.433658155742934 0 0 0
827 1 10.295140999567542 2.6700975465404144 13.7674621171892 0 0 0
1027 1 13.375326775742668 2.706564736773686 14.012376225013854 0 0 0
1047 1 11.754964931811923 5.191449884733159 14.039925370235965 0 0 0
1206 1 17.839015409142256 1.683799640294243 11.79546869110871 0 0 0
1225 1 16.359094857409602 2.6042243091557062 9.256689726061628 0 0 0
1226 1 16.18448329554988 4.303543757888363 11.671462769019314 0 0 0
1426 1 19.07086548491791 4.38282411911315 11.577291554984784 0 0 0
1445 1 17.740707002482573 5.100129322968654 9.216437051567206 0 0 0
1406 1 20.60431703910792 1.7277538301045314 11.559893308778076 0 0 0
1606 1 23.72022345667085 1.596552271761856 11.649728301816074 0 0 0
1625 1 22.289052052425696 2.5610836103105203 9.30535883068378 0 0 0
1626 1 22.24516314032158 4.3079009655538245 11.604982626413497 0 0 0
1605 1 23.528390535039627 0.09320894435558773 9.276524564755297 0 0 0
25 1 28.067235816441276 2.38749711320283 9.304414627843455 -1 0 0
1806 1 26.53843508759214 1.5700529031183572 11.665846573535394 0 0 0
1825 1 25.091163641110846 2.6472215460822435 9.397656506432138 0 0 0
1826 1 25.14283760120086 4.195494407107438 11.641145896701818 0 0 0
1827 1 25.005915847250485 2.6744512400180467 13.962245844469514 0 0 0
46 1 -2.926643619623867 6.8261819100293675 11.458276770971167 0 0 0
66 1 -4.3350502558140604 9.360834839180255 11.584925706545233 0 0 0
266 1 -1.4869755288149198 9.411443555089965 11.682376641549068 0 0 0
285 1 -2.900129658026442 10.138062728569272 9.178357048093305 0 0 0
267 1 -1.5629698246851 7.654740830063994 13.99440198291108 0 0 0
67 1 -4.36552075051006 7.820911452394362 13.901017117955847 0 0 0
246 1 -0.002943306759934596 6.785649301772266 11.661183942639402 0 0 0
485 1 -0.03407858390404135 10.100064827406246 9.233864911584565 0 0 0
446 1 2.89770456053713 6.781846786131244 11.585361847328095 0 0 0
465 1 1.534689132860571 7.652649733538748 9.21629675340306 0 0 0
466 1 1.4532839881586226 9.380047195406364 11.590683781584962 0 0 0
666 1 4.541969971652568 9.228610442107565 11.679036897623256 0 0 0
646 1 5.836738822155889 6.840773352222327 11.498650845379181 0 0 0
846 1 8.975077375967283 6.942248526472747 11.536053708023527 0 0 0
866 1 7.427049088524343 9.469356577069984 11.465801915082977 0 0 0
847 1 8.91162397939057 5.123004190892377 13.910106960105798 0 0 0
1087 1 8.771635556505245 10.173258348321994 14.008867205660078 0 0 0
1245 1 14.91622360058515 5.1054076379030455 9.149801508864872 0 0 0
1046 1 11.813659212955503 6.85737807496095 11.662584927883136 0 0 0
1066 1 10.214986970487422 9.427076943948382 11.724450004727052 0 0 0
1266 1 13.34716467537372 9.296896675244499 11.61020716501487 0 0 0
1246 1 14.743282670698767 6.820256084525975 11.532666820914391 0 0 0
1067 1 10.237436219463559 7.6122064403086265 14.010017669711196 0 0 0
1287 1 11.699536682740067 10.179068508619537 13.974569291088434 0 0 0
1487 1 14.629256536551056 10.183857670713099 13.793139233484156 0 0 0
1446 1 17.75197538682727 6.85996460277311 11.557778407614542 0 0 0
1465 1 16.375048380843374 7.652748059436376 9.212634393270207 0 0 0
1466 1 16.30986740953034 9.373309120810202 11.656113271773343 0 0 0
1666 1 19.218192813596026 9.393496971433654 11.661754016429848 0 0 0
1467 1 16.185084126326238 7.723597707318428 13.998221970139705 0 0 0
1667 1 19.19414895663636 7.587274651532095 13.970882188347733 0 0 0
1845 1 23.65975897331414 5.13283436029873 9.222912242507737 0 0 0
1646 1 20.62320098338386 6.76324369569926 11.61999612209842 0 0 0
1846 1 23.641983650600864 7.006713079161124 11.675117194754376 0 0 0
1866 1 22.068353060820904 9.395928150856683 11.651848655982711 0 0 0
1867 1 22.095484348473192 7.682881517229118 13.933034922873608 0 0 0
87 1 -5.821927316165887 10.200292443337913 13.993398999676097 0 0 0
1887 1 20.761947973842368 10.164603376380473 14.120937460549479 0 0 0
86 1 -5.864222168083824 11.904323818791216 11.673941967311025 0 0 0
106 1 -7.422635048142427 14.530381306748303 11.598486069414097 0 0 0
107 1 22.026258754656297 12.711295540776685 14.156135175801015 -1 0 0
286 1 -2.8568114929351984 11.92539138446517 11.595566149348759 0 0 0
306 1 -4.509468310030758 14.516106788457632 11.628201107205676 0 0 0
506 1 -1.531714552849939 14.419320788607557 11.631597987527119 0 0 0
486 1 -0.00960098413929578 11.987626731289597 11.584631761719258 0 0 0
287 1 -3.0429927713211025 10.26959154388547 14.014714766965184 0 0 0
725 1 -0.005373468433292406 15.359759488962855 9.34911005607066 0 0 0
686 1 2.962531298850523 11.73967582451852 11.57828751334712 0 0 0
705 1 1.5374529818247267 12.776108797574466 9.231384911739328 0 0 0
706 1 1.381068244867324 14.440046041829932 11.59309170780493 0 0 0
906 1 4.392051873210061 14.386830008900958 11.579043801017804 0 0 0
707 1 1.4507613535393813 12.824225526524984 13.931302053468547 0 0 0
907 1 4.282867114554253 12.617318106250222 13.9761863479445 0 0 0
885 1 5.799206133982828 10.340151163514776 9.214002425098897 0 0 0
886 1 5.9382566847888025 11.915177135907275 11.661242462871606 0 0 0
1086 1 8.868014627053553 12.012598240028401 11.609439975860763 0 0 0
1106 1 7.489082435161899 14.468191359926012 11.664540519259582 0 0 0
887 1 5.970334420755678 10.220016360062706 13.964643558848858 0 0 0
1286 1 11.768932728094342 11.870032302931724 11.643856422145607 0 0 0
1305 1 10.290511783754287 12.836346213971296 9.339135030790462 0 0 0
1306 1 10.264113918069125 14.61661037302475 11.71642794371574 0 0 0
1505 1 13.273006406120226 12.735009352505227 9.405979334211196 0 0 0
1506 1 13.274132510762774 14.648213528943078 11.67106630361872 0 0 0
1525 1 11.72241557510976 15.32721007803978 9.268159115861835 0 0 0
1307 1 10.20610591466862 12.776800023222261 13.983514179398885 0 0 0
1485 1 14.805489762203079 10.334757403274537 9.314354293870062 0 0 0
1486 1 14.800195766674593 11.978399806487095 11.531690254895649 0 0 0
1686 1 17.682442740123193 11.92546061450407 11.57493424096812 0 0 0
1705 1 16.27628543018075 12.769944215461777 9.31090619158563 0 0 0
1706 1 16.20991906582843 14.50398338168472 11.69601725449464 0 0 0
1906 1 18.999376741485598 14.37533674325696 11.664440988380834 0 0 0
1925 1 17.6202972536396 15.407999893455031 9.357296900494733 0 0 0
1707 1 16.16450023832688 12.783182744136742 13.949090189916342 0 0 0
1886 1 20.639220634509364 11.957664230320791 11.647899803853683 0 0 0
127 1 20.56348265626505 15.326742009262665 14.045347697373135 -1 0 0
146 1 -10.443032498012386 19.480828831633275 11.7893644642976 0 0 0
147 1 -10.311150559823346 17.924553793304895 14.115788889650325 0 0 0
126 1 -8.781803339301069 17.173031702972565 11.746772619422021 0 0 0
326 1 -5.752235647676682 17.05610291262684 11.786162179580087 0 0 0
345 1 -7.296425311253566 17.78850207155874 9.263891856600498 0 0 0
346 1 -7.453507270430354 19.676170251281803 11.679991688166938 0 0 0
347 1 -7.4203101097645074 18.06986354093025 14.114793356405814 0 0 0
526 1 -2.950783720380541 17.04666618271667 11.60121941255331 0 0 0
546 1 -4.363594712976932 19.746694733976838 11.627735207050371 0 0 0
746 1 -1.4806878380924517 19.594261141037933 11.61160588648497 0 0 0
965 1 0.018149977960464178 20.527052745835263 9.233644509676054 0 0 0
527 1 -3.022542036193601 15.34041947404969 13.83188676395358 0 0 0
547 1 -4.382968366434485 17.933656420275227 13.98004022203039 0 0 0
747 1 -1.525065222427576 17.928207865020724 13.915471763526059 0 0 0
726 1 0.03863872266144807 16.94408800087575 11.58834571567656 0 0 0
926 1 3.001324015777812 17.13607337294774 11.692581339534705 0 0 0
945 1 1.4950286519117866 17.76877939639509 9.377408102487669 0 0 0
946 1 1.466067408799468 19.476607228816434 11.709148334359936 0 0 0
1146 1 4.457108118387522 19.541105779060537 11.584627620296894 0 0 0
947 1 1.5684240615824963 17.962108096377676 14.047728049008152 0 0 0
1147 1 4.47240632028919 17.924722999548955 14.093104883599901 0 0 0
1126 1 5.728002823081502 17.08620216685081 11.619060626079804 0 0 0
1326 1 8.745166739475389 17.017537498579507 11.736412431531114 0 0 0
1346 1 7.4456027767165 19.65043150838165 11.51930789160495 0 0 0
1365 1 5.957826465103931 20.459760449002502 9.126329703887006 0 0 0
1526 1 11.663428229654212 17.063686139013598 11.738611407043967 0 0 0
1546 1 10.188530539546282 19.61277366671584 11.645053623327618 0 0 0
1746 1 13.262709823437207 19.592576124198537 11.651150008330402 0 0 0
1765 1 11.815132953700473 20.369143133713948 9.341474949575174 0 0 0
1727 1 14.526039548930013 15.298030454806582 14.166180540318406 0 0 0
1747 1 13.14168584642084 17.83958115659412 13.903492403236966 0 0 0
145 1 -10.225219185463951 17.994888929447136 9.285147993556325 0 0 0
1726 1 14.784398699015284 17.098731346508565 11.766884744995359 0 0 0
1926 1 17.708103522973296 17.118788689827134 11.575139135054439 0 0 0
1946 1 16.244199083618945 19.52178765862687 11.713531143805143 0 0 0
1927 1 17.72275479576693 15.280914663966488 13.946412443808578 0 0 0
205 1 -11.756721458428 25.498550539870273 9.160764844858736 0 -1 0
166 1 -11.778230661393199 22.116074640906255 11.718596225876011 0 0 0
186 1 -13.12219103083186 24.576819735162886 11.459145716920844 0 0 0
385 1 -10.193257694308821 22.891085549413866 9.350279839333789 0 0 0
386 1 -10.205782595701598 24.732507951754386 11.687844388195366 0 0 0
387 1 -10.245756980234928 22.995048541900836 13.933967106136722 0 0 0
366 1 -8.880389328836069 22.127886413951444 11.675065226586401 0 0 0
566 1 -5.926896135031447 22.10389179618673 11.593367143933524 0 0 0
585 1 -7.333947942100481 23.000143725216894 9.387940080454309 0 0 0
586 1 -7.363223627277989 24.79311858058152 11.624856987917674 0 0 0
367 1 -8.768836743117832 20.49208837358966 14.166271108215422 0 0 0
587 1 -7.466740992600341 22.992959848064594 13.979099731156218 0 0 0
805 1 11.824599600555734 0.02231953221560541 9.213275964900562 0 0 0
766 1 -2.882216414142485 22.318050882765093 11.767241364886887 0 0 0
786 1 -4.424345259229348 24.83928764394853 11.630456775627875 0 0 0
986 1 -1.4886194930573298 24.732601494491405 11.71181911473802 0 0 0
1005 1 14.737385166707503 0.0834385243178883 9.297158155704535 0 0 0
966 1 0.07126478360191368 22.144565022644876 11.62664524863355 0 0 0
787 1 -4.499915653383571 23.122745968714185 14.015364106349598 0 0 0
1166 1 2.938477788935549 22.14888223937068 11.512287278618995 0 0 0
1185 1 1.419674052604256 22.958124472217094 9.27671564251817 0 0 0
1186 1 1.5755780168683329 24.762338536077905 11.64669263594767 0 0 0
1386 1 4.537691838544152 24.580290668370182 11.66491312349094 0 0 0
967 1 -0.06693830595038146 20.51596446731741 14.120738604282803 0 0 0
1405 1 20.73709852602778 0.05926182107184319 9.30881960745803 0 0 0
1366 1 6.007030685745507 21.96511539615478 11.583656246872145 0 0 0
1566 1 8.738147406047561 22.130547622091896 11.772967709705597 0 0 0
1585 1 7.396039076771299 22.935381235589396 9.184425657061409 0 0 0
1586 1 7.363721574645844 24.712480655380404 11.661924095177502 0 0 0
1407 1 20.826613157200583 0.037870160306635384 13.962517471693037 0 0 0
1587 1 7.303254333796364 22.958003427123295 14.135999173219535 0 0 0
1965 1 14.83931063795375 20.470247707397768 9.417094799790222 0 0 0
1766 1 11.79873834246628 22.155351178953694 11.588591692495996 0 0 0
1785 1 10.302483329789741 23.005825185811872 9.258707553422989 0 0 0
1786 1 10.355181460647488 24.701849761041963 11.634267099668456 0 0 0
1986 1 13.274237683633025 24.63827753780324 11.695788185923199 0 0 0
5 1 14.819030175642528 25.391164003645052 9.47040257608414 -1 -1 0
1767 1 11.735113129531767 20.430349585618224 14.049802611402512 0 0 0
1787 1 10.358164943346654 22.94141079852436 13.92200526813576 0 0 0
1966 1 14.700139529270603 22.01656720713384 11.63986135439452 0 0 0
1967 1 14.762404239021633 20.437506633459456 14.035429209702816 0 0 0
28 1 -1.636621447754326 4.1684757010522695 16.382846265607583 0 0 0
8 1 -0.008137968187127847 1.6631344495643967 16.284432530294477 0 0 0
47 1 -2.881051117852432 5.124729852119643 13.957966976887247 0 0 0
247 1 -0.13354592171439977 5.030791771314321 14.033595498154352 0 0 0
208 1 3.029127122590196 1.574570577717475 16.22426380269441 0 0 0
227 1 1.5572658947627276 2.4862030539008977 14.060298231253665 0 0 0
228 1 1.5375873282368229 4.280331404429583 16.456903909245277 0 0 0
428 1 4.397456798627991 4.268385461136664 16.374647968365146 0 0 0
447 1 2.994909475860191 5.179606650933593 13.940221483512522 0 0 0
207 1 -11.914758797891709 25.45684458771423 13.995673301392449 0 -1 0
408 1 5.97114278052181 1.7884428590092418 16.384451709836675 0 0 0
608 1 9.014930987481526 1.7538090011360863 16.249907934859724 0 0 0
627 1 7.369663427204488 2.669429397075967 13.824152021748224 0 0 0
628 1 7.415802882004961 4.336043317243608 16.261850998075353 0 0 0
607 1 -5.934724142012838 25.4692892122416 14.043136569421872 0 -1 0
629 1 7.411048589816016 2.556418717657672 18.56344965107736 0 0 0
849 1 8.82199567934302 5.222913671186256 18.720763413114263 0 0 0
409 1 -8.84928325122318 25.461890395525906 18.606341205872095 0 -1 0
808 1 11.803192452252995 1.7655042618923567 16.298686901425175 0 0 0
828 1 10.227572182884675 4.263475777211166 16.2414340472587 0 0 0
1028 1 13.167092990769769 4.189163863840726 16.450248393202035 0 0 0
1008 1 14.825925619696765 1.6160538474878265 16.298262642390444 0 0 0
1247 1 14.836121295479982 5.226048018672156 14.017659596756737 0 0 0
807 1 11.844569399638944 0.10822692621449155 14.154846913433978 0 0 0
829 1 10.323566885793523 2.623193223572015 18.758487073732606 0 0 0
1208 1 17.80156668540534 1.788482300689278 16.229022346359216 0 0 0
1227 1 16.347180597884353 2.4841880167511574 13.880804920270325 0 0 0
1228 1 16.22875973562916 4.164000840519413 16.309189852564852 0 0 0
1427 1 19.215507060777355 2.597338944667017 13.967180829630909 0 0 0
1428 1 19.187478997950244 4.432627814898919 16.277571839567372 0 0 0
1447 1 17.688943039123068 5.151316461617452 13.97801892731546 0 0 0
1009 1 14.86569589410744 0.0020611187463818502 18.695820864878538 0 0 0
1408 1 20.604158242213146 1.7749926285777322 16.1335750790595 0 0 0
1608 1 23.573085503211097 1.6685040868198615 16.454554675204907 0 0 0
1627 1 22.16190494236877 2.5780327999466683 13.90904761998746 0 0 0
1628 1 22.118631951996107 4.228693379588884 16.334957449039685 0 0 0
1647 1 20.662821018288838 5.082605361333535 13.936014410729612 0 0 0
1607 1 8.97032785384359 25.5161615209625 14.081093499883668 0 -1 0
27 1 27.94803736573288 2.5531811779161195 13.933619911339052 -1 0 0
1808 1 26.495752437102837 1.782849473123441 16.258328681646347 0 0 0
1828 1 25.005552616530814 4.267847225513877 16.320352535060117 0 0 0
1829 1 25.08021412520055 2.5330018284528193 18.70001206427971 0 0 0
1809 1 11.817874045305581 25.456664943666993 18.584068122834683 0 -1 0
48 1 -3.0275225035605793 6.792175705906693 16.3847068295805 0 0 0
68 1 -4.37861787213051 9.257033085866118 16.460402634935708 0 0 0
268 1 -1.3638899891377854 9.234335872962394 16.322297255809765 0 0 0
248 1 0.01967968269941569 6.7911882523619225 16.415460517749878 0 0 0
269 1 -1.4675375023657278 7.718806764561814 18.68541861944206 0 0 0
289 1 -3.0040367783991386 10.28305976869656 18.73635690452262 0 0 0
448 1 2.9866041211978374 6.78719853640233 16.425380589868357 0 0 0
467 1 1.4138070950904758 7.5208699132366315 14.040046323911472 0 0 0
468 1 1.4940389296981116 9.347781340803166 16.33859439633896 0 0 0
667 1 4.345635004677583 7.61490313014583 13.998329879413362 0 0 0
668 1 4.43171961401852 9.419460730554782 16.288055465205037 0 0 0
648 1 5.964967959899096 6.902393266303441 16.268087966408896 0 0 0
848 1 8.70050089316732 6.790106935341977 16.40568971787277 0 0 0
867 1 7.305600051147153 7.67211811836463 13.8929140699292 0 0 0
868 1 7.409443805557748 9.350900204865356 16.443872520518813 0 0 0
1048 1 11.813858564582063 6.7394819193238344 16.321458790606904 0 0 0
1068 1 10.196993106202319 9.307528375231177 16.230824242437933 0 0 0
1267 1 13.234222186718878 7.7758393213934704 13.97490278148842 0 0 0
1268 1 13.155151744968393 9.412059796648311 16.27470160059753 0 0 0
1248 1 14.692570220309399 6.78220572942002 16.45800725748205 0 0 0
1269 1 13.070449109111633 7.622378056436013 18.68932286941117 0 0 0
1448 1 17.739646766475126 6.8756005783065905 16.430901865762355 0 0 0
1468 1 16.123345932018204 9.448479962284194 16.378684813961073 0 0 0
1668 1 19.169328990884843 9.317626258795551 16.282077491045143 0 0 0
1469 1 16.173117503014602 7.611306237610512 18.752551998006446 0 0 0
1669 1 19.126138680866177 7.705820386130248 18.823529067008465 0 0 0
1847 1 23.731096733565714 5.26413079687167 13.93024762151615 0 0 0
1648 1 20.587776030848715 6.932278304797059 16.32938125382881 0 0 0
1848 1 23.41540095202381 6.819889293476776 16.175167607701898 0 0 0
1868 1 22.231692713242992 9.366110418175992 16.4215923793248 0 0 0
1869 1 22.071202791208748 7.600065768135558 18.740428015847186 0 0 0
1889 1 20.528124075945158 10.23032731187645 18.602683134728498 0 0 0
69 1 24.96431972263381 7.714506406819592 18.712920525160857 -1 0 0
88 1 -5.859340420383639 11.874962353759312 16.31389388588514 0 0 0
108 1 -7.31582823097354 14.555238352781531 16.278715504869734 0 0 0
109 1 -7.2758516612150705 12.769529447851609 18.589419330152555 0 0 0
288 1 -3.0018154740494647 11.89106028633011 16.384289239246936 0 0 0
307 1 -4.419934371470919 12.789295275161624 13.931245494379155 0 0 0
308 1 -4.501184229574046 14.457372006639336 16.22578567780591 0 0 0
507 1 -1.53287984222148 12.810131447817731 14.181947583676369 0 0 0
508 1 -1.5497741939853538 14.595763192734415 16.37886164750429 0 0 0
309 1 -4.3876562912712 12.846938139804493 18.63498234407877 0 0 0
487 1 -0.009835667611601867 10.205160363521312 13.869165698112235 0 0 0
687 1 2.9548396464326454 10.023863982657874 13.897229183384638 0 0 0
488 1 -0.0947926597715951 11.897424017588568 16.438646738371308 0 0 0
688 1 3.023204407852203 11.853111989570673 16.185687491525808 0 0 0
708 1 1.4050051863357766 14.561450082715458 16.238848503833754 0 0 0
908 1 4.326724013531234 14.574578823339703 16.29203271902524 0 0 0
927 1 2.899497280294842 15.452093666370768 13.944596326655775 0 0 0
689 1 2.950422762556672 10.236761048245718 18.75978926368747 0 0 0
729 1 -0.10391309162636145 15.437717133746416 18.68528547102713 0 0 0
888 1 5.988686447462238 12.031700080785381 16.464595117563572 0 0 0
1088 1 8.802560298221797 11.871324960468861 16.376787744460323 0 0 0
1107 1 7.356038060289969 12.764315824303486 14.045273404440449 0 0 0
1108 1 7.272820509992495 14.535421318769897 16.296723926284088 0 0 0
1127 1 5.8496149673395905 15.312485790161647 13.976958275825417 0 0 0
889 1 5.884900995288462 10.205497905002202 18.80690196162429 0 0 0
1109 1 7.232776347604712 12.803145304177932 18.786877543664787 0 0 0
1129 1 5.748940187878621 15.276473879368838 18.77516959371235 0 0 0
1288 1 11.696720169897391 11.765226602558606 16.352680194716235 0 0 0
1308 1 10.153867962169901 14.435983577241501 16.4569640282353 0 0 0
1507 1 13.197022298576908 12.776195692296922 13.94479393353907 0 0 0
1508 1 13.163600730551284 14.399610249148123 16.443105795785257 0 0 0
1488 1 14.640658570097633 11.958880360738492 16.433632723683036 0 0 0
1289 1 11.696403688148807 10.370862495332183 18.669907229988052 0 0 0
1309 1 10.245128827220524 12.707350758011398 18.681401511940305 0 0 0
1509 1 13.32760398327654 12.696623955889637 18.733838339134824 0 0 0
1687 1 17.720196663977127 10.259462589739687 13.942958517852725 0 0 0
1688 1 17.657831842724697 11.907881340809887 16.403067428635985 0 0 0
1708 1 16.257465361679238 14.494887952733043 16.29061507280888 0 0 0
1907 1 19.149046509532603 12.829412260200993 14.006061533401356 0 0 0
1908 1 19.287262044644955 14.443898108139052 16.395596733040353 0 0 0
1689 1 17.597182976845026 10.233572967529591 18.60586701004779 0 0 0
1709 1 16.195564595397492 12.880951999190856 18.742563649375928 0 0 0
1888 1 20.625762175462008 11.937859130297968 16.488455754923276 0 0 0
148 1 -10.429962968593308 19.6052309528517 16.2685024626833 0 0 0
149 1 19.11204281199062 17.856609074708935 18.692852653683545 -1 0 0
327 1 -6.027102159630926 15.327015814132961 13.908130378104653 0 0 0
128 1 -8.952411919085792 17.044183519489223 16.392404586697143 0 0 0
328 1 -5.913030655830572 17.082258666183442 16.207323488523418 0 0 0
348 1 -7.357175524880513 19.534703685563898 16.558247965374584 0 0 0
567 1 -5.860502456700882 20.531091118040912 13.935179306443866 0 0 0
329 1 -5.968582525797921 15.354086803501065 18.545579834841835 0 0 0
349 1 -7.482361955811664 17.92935368759352 18.767185659446607 0 0 0
528 1 -3.123466921331477 17.103661379671614 16.43087627244562 0 0 0
548 1 -4.369827456518216 19.577713566458257 16.293640546994286 0 0 0
748 1 -1.3030939894917792 19.65132204132118 16.41635166639872 0 0 0
767 1 -2.9448839549273464 20.384623419207813 14.08092944064014 0 0 0
727 1 -0.052249815534258164 15.44404894474024 13.978994937800454 0 0 0
728 1 -0.11429393743965253 17.02944576351242 16.32286171033393 0 0 0
928 1 2.9275087964194086 17.067575327761894 16.382998534973545 0 0 0
948 1 1.502447145349889 19.56401985204254 16.31584145581292 0 0 0
1148 1 4.376765318168775 19.639338507020312 16.431004196495568 0 0 0
1167 1 2.907873295788884 20.515593722344008 13.950643431374154 0 0 0
1149 1 4.481023352366958 17.66504417492945 18.623883929504697 0 0 0
969 1 -0.07013795091683886 20.473621409687233 18.787851266361606 0 0 0
1169 1 2.963971497764826 20.36512633593157 18.730498581689858 0 0 0
1327 1 8.715854936160214 15.388412908134628 14.028765094916764 0 0 0
1128 1 5.919948020012133 16.903571938621567 16.331935443974746 0 0 0
1328 1 8.793555630022501 17.152922863545427 16.440186563106415 0 0 0
1347 1 7.373996166873866 17.934499659383206 13.998646848616314 0 0 0
1348 1 7.333974934045133 19.552073741137278 16.305569374948202 0 0 0
1329 1 8.708871479575684 15.310652961666902 18.619889647905634 0 0 0
1349 1 7.218185079603592 17.97947327120017 18.720557975146786 0 0 0
1527 1 11.72635135894167 15.241644940381672 14.091207493270968 0 0 0
1528 1 11.721734050631566 16.956962700774596 16.279932962215952 0 0 0
1547 1 10.287422691623624 18.047114179578024 13.926654404711414 0 0 0
1548 1 10.359273909693238 19.594258139794277 16.29405375325816 0 0 0
1748 1 13.092835955776335 19.625205783898963 16.326722755914137 0 0 0
1728 1 14.581137697094805 17.094754703583227 16.326016263926633 0 0 0
1749 1 13.171719479690509 17.949579406051406 18.73060986287516 0 0 0
1928 1 17.676725876755597 17.057394163331125 16.44441726808118 0 0 0
1947 1 16.24388602010741 17.878831417498276 14.159555906795426 0 0 0
1948 1 16.13290575817357 19.579452886092213 16.38300748073471 0 0 0
167 1 -11.768368957949948 20.399747053398016 13.999017199960031 0 0 0
168 1 -11.822914653164847 22.16850297471872 16.23618204293201 0 0 0
188 1 -13.497605082294232 24.728130745965515 16.318757982903083 0 0 0
388 1 -10.324624224020875 24.662991444412846 16.378454911714183 0 0 0
389 1 -10.4718635452476 22.99716588751474 18.728112418028307 0 0 0
368 1 -8.907167232128058 22.152657331739896 16.424999718121896 0 0 0
568 1 -5.926614656507447 22.068849036091805 16.3360830118742 0 0 0
588 1 -7.399658440043813 24.711446210054696 16.236071532280885 0 0 0
569 1 -5.903675983720261 20.48932235598987 18.77328614769493 0 0 0
609 1 8.70949787275055 0.06464245721925978 18.55331228130674 0 0 0
589 1 -7.436070528093884 22.93388597213557 18.71732495661247 0 0 0
768 1 -2.943883596909735 22.18425073130789 16.279560583318414 0 0 0
788 1 -4.457399438396272 24.733808496541037 16.502085775503094 0 0 0
987 1 -1.4670027151778604 23.13598003876306 13.993599937960859 0 0 0
988 1 -1.5168019580006944 24.74265517135342 16.342071795234034 0 0 0
968 1 -0.10790963628448177 22.237974838519023 16.425133667304475 0 0 0
789 1 -4.476939540471538 22.985863014678877 18.641453731954208 0 0 0
1007 1 14.864960096470869 0.15451458052292358 13.887670557550601 0 0 0
1207 1 3.04884305791307 25.520727628617685 13.977074138287218 0 -1 0
1168 1 2.8066191078483365 22.203907978200796 16.321687745195224 0 0 0
1187 1 1.4775837325420214 22.979479848064358 14.067093712516014 0 0 0
1188 1 1.53412512568586 24.662468268655836 16.253969288886392 0 0 0
1387 1 4.472795965723973 22.986399497340223 13.846288150831056 0 0 0
1388 1 4.618608914388937 24.70972398993989 16.319628528451155 0 0 0
1189 1 1.53178202250696 22.9979275420584 18.838597635887538 0 0 0
1367 1 5.7834976849429705 20.495936309433823 13.953826295001031 0 0 0
1567 1 8.675511564153581 20.492508005733278 13.917716739527787 0 0 0
1368 1 5.897006503596304 22.145772187336874 16.373537828744897 0 0 0
1568 1 9.047663300451049 22.155894477350763 16.449873086506447 0 0 0
1588 1 7.431426200519581 24.699563394266093 16.39077240400953 0 0 0
1369 1 5.816886228873359 20.404419019696945 18.758186012827878 0 0 0
1569 1 8.848260657925701 20.411894208656662 18.536803302963722 0 0 0
1807 1 26.50152400527172 7.292388708450283e-05 14.132178361531095 0 0 0
1768 1 11.8049723957488 22.092895514656824 16.324200103993604 0 0 0
1788 1 10.302868062590406 24.62416989245635 16.285120987367076 0 0 0
1987 1 13.201419916096508 22.89576852003831 14.096187658016502 0 0 0
1988 1 13.147693186583298 24.57325564939756 16.292224137054987 0 0 0
1968 1 14.840370192671951 22.131232395496937 16.402297957541123 0 0 0
1969 1 14.760554511226902 20.233323182477697 18.613917783817186 0 0 0
1789 1 10.306695789355507 23.0146071668143 18.834260886800816 0 0 0
187 1 -13.23281749053283 22.988064444775574 13.897942987031813 0 0 0
169 1 -11.720476398309742 20.356358311405174 18.657140869150417 0 0 0
189 1 -13.252957448022768 22.986018875756024 18.736279491111635 0 0 0
30 1 -1.418880664157491 4.339123860087757 21.04354939641703 0 0 0
10 1 -0.08333364904632297 1.7911327827280579 20.932215950324434 0 0 0
210 1 2.838771556027155 1.6660631455658146 21.05514581912249 0 0 0
229 1 1.3356679448614484 2.505713703857962 18.650806596811698 0 0 0
230 1 1.5789691939451995 4.291760505403564 21.06258464949435 0 0 0
429 1 4.218878154875812 2.6126885463655434 18.73006449096832 0 0 0
430 1 4.341631332690689 4.217734110587754 21.0611117811457 0 0 0
431 1 4.4178670985197845 2.46613025583804 23.25620176791671 0 0 0
211 1 -11.740076938825505 25.449194084627855 23.38866248583634 0 -1 0
9 1 14.734456784925857 25.47571708672713 18.666448277886634 -1 -1 0
410 1 5.936224494021525 1.6688269682506374 20.813632616354642 0 0 0
610 1 8.798483425692401 1.686310494558901 21.1225043571384 0 0 0
630 1 7.313712312435478 4.235414156192859 20.943810826870116 0 0 0
649 1 5.812485258420882 5.10108354482018 18.619921195562885 0 0 0
631 1 7.2452808795532615 2.4301516913283656 23.23013627823709 0 0 0
810 1 11.693316110792187 1.6651799381308336 21.102054281267304 0 0 0
830 1 10.293510148229487 4.276036394794307 21.104737685464144 0 0 0
1029 1 13.16332128172726 2.529600699046006 18.758929666044683 0 0 0
1030 1 13.183774904822382 4.281520369323725 21.124607235790453 0 0 0
1010 1 14.664559078400453 1.4915742839017851 21.13289783055912 0 0 0
831 1 10.459202601195823 2.458446376028072 23.519303198284735 0 0 0
1031 1 13.260947686542712 2.5362100382985293 23.274704184583353 0 0 0
1051 1 11.677096671759609 5.033950607554125 23.42363034488979 0 0 0
809 1 -2.909517788024885 25.480821728281107 18.713433497831275 0 -1 0
811 1 -3.0418598844595652 25.489434904388972 23.335199234248623 0 -1 0
1011 1 14.770717632864612 0.030048047776124475 23.488018424216005 0 0 0
1210 1 17.62162902340861 1.8318603955407977 21.092709612880153 0 0 0
1229 1 16.258395106034527 2.4429298376460418 18.615193822658807 0 0 0
1230 1 16.10982882412911 4.250676986420828 21.115195075578278 0 0 0
1429 1 19.259207593969812 2.6942113478624368 18.5281554344107 0 0 0
1430 1 19.220453349232876 4.215300866748707 21.035732784068927 0 0 0
1410 1 20.747184770063107 1.6721963862783529 20.979445727134536 0 0 0
1610 1 23.651157947869066 1.8766531440547418 21.08496263256889 0 0 0
1629 1 22.121828850852843 2.596146531591861 18.67862919604216 0 0 0
1630 1 22.178490998293533 4.297992455068652 21.193546770898205 0 0 0
1631 1 22.259034181268923 2.743053057454377 23.399128100410536 0 0 0
1609 1 8.793496521762378 25.541527020207525 18.76848520997184 0 -1 0
1411 1 20.824795023526896 0.1163938396717854 23.480575059914816 0 0 0
29 1 27.967500745650355 2.5845891148328812 18.624022534376667 -1 0 0
1810 1 26.60138734798695 1.80027278093316 21.101936201867147 0 0 0
1830 1 25.08490551385183 4.294865900653248 21.08786062075095 0 0 0
49 1 26.454669523200167 5.147886307427628 18.763618432433486 -1 0 0
31 1 28.060859471069577 2.49285798454721 23.423680510190536 -1 0 0
1831 1 25.222848716626885 2.503968743737082 23.463661422177722 0 0 0
249 1 -0.14079251567535503 5.042501282509119 18.67272458688621 0 0 0
51 1 26.453120590036974 4.955611739580439 23.467649724355645 -1 0 0
50 1 -3.0008649393280757 6.840562840601854 21.028922501136435 0 0 0
70 1 -4.3393996813461495 9.348663516878846 21.076772292373057 0 0 0
270 1 -1.4781532401045967 9.43531637011061 21.139692315315777 0 0 0
250 1 0.12641149811514177 6.736483250265492 21.084276303580268 0 0 0
271 1 -1.6470423597817831 7.669756584801046 23.432100429215698 0 0 0
71 1 24.86378653061388 7.6371307479853545 23.337953376906885 -1 0 0
449 1 2.986792900924444 5.05071855110059 18.718982483658028 0 0 0
451 1 3.015108267410901 5.129962278631 23.476721105872095 0 0 0
489 1 0.108115619857403 10.235062189929387 18.661986902719477 0 0 0
450 1 3.0621825290430995 6.7401201357664355 20.953019053409832 0 0 0
469 1 1.5143027695606501 7.7789178533051295 18.61066117995415 0 0 0
470 1 1.316510968338595 9.293836394314699 21.101745113233488 0 0 0
669 1 4.40933790122628 7.571767683369458 18.709398105691097 0 0 0
670 1 4.324470743903525 9.36485300096754 21.064196091087076 0 0 0
471 1 1.4477330878908343 7.705233671298306 23.393937984273805 0 0 0
650 1 5.838897206952246 6.661038765553795 21.08363196361547 0 0 0
850 1 8.767217783754557 6.73151826813524 21.088319448949456 0 0 0
869 1 7.230029920024327 7.625197767868738 18.79329346716478 0 0 0
870 1 7.357837883655796 9.386526523432419 21.12069809101554 0 0 0
1089 1 8.855263488886647 10.36065649874246 18.76989643272341 0 0 0
871 1 7.402934639368344 7.622450919502058 23.450938717868564 0 0 0
1049 1 11.770021786561008 5.097532384149443 18.71831114517928 0 0 0
1050 1 11.64164495338231 6.822393719761049 20.88731292569402 0 0 0
1069 1 10.267232863907333 7.65083890559479 18.66028775289517 0 0 0
1070 1 10.390086886883404 9.49538892840434 21.026996584469558 0 0 0
1270 1 13.306577928095203 9.405151233076836 20.96932742172031 0 0 0
1071 1 10.378184411375033 7.765241087596545 23.43910573216176 0 0 0
1271 1 13.258403821724013 7.732960625784271 23.40819000318587 0 0 0
1249 1 14.72705498232272 5.144628420836139 18.72935431442847 0 0 0
1449 1 17.56353159912092 5.142383350661639 18.71707739167938 0 0 0
1250 1 14.48160765611543 6.938107266008917 21.07921514215697 0 0 0
1450 1 17.71635670260929 6.699815940204134 21.064648352861028 0 0 0
1470 1 16.243164057560257 9.242693612265109 21.034792707501204 0 0 0
1670 1 19.156091509116052 9.323595982522848 21.061295892939164 0 0 0
1649 1 20.51260666411371 5.123705178189264 18.74802563333 0 0 0
1849 1 23.53591355610296 5.219764630872186 18.690388567764888 0 0 0
1651 1 20.49090217637317 5.134281426669588 23.53120678761756 0 0 0
1851 1 23.660775014307035 5.03045343276802 23.53431774197248 0 0 0
1650 1 20.609933625052534 6.757590138170422 21.23334197110389 0 0 0
1850 1 23.473532497600914 6.728237516931691 21.018375420986864 0 0 0
1870 1 22.028037611109156 9.462989754756336 21.12636905872428 0 0 0
1871 1 21.99545432477101 7.541948141865889 23.61037247597217 0 0 0
89 1 23.49890420772033 10.041079254870942 18.739263792454725 -1 0 0
91 1 23.61486363267214 10.109404294377464 23.411137941573106 -1 0 0
90 1 -5.9264145603951475 11.905482087313702 21.057403766382272 0 0 0
110 1 -7.3743606082757 14.511426880323734 20.95812613496375 0 0 0
291 1 -2.9589435937328683 10.308544615994542 23.54076477365123 0 0 0
290 1 -3.015552158097388 11.930111612075864 21.030489777379195 0 0 0
310 1 -4.505858886038664 14.484855272117525 21.024694475076913 0 0 0
509 1 -1.4411498750447254 12.867185566810477 18.661780697442698 0 0 0
510 1 -1.5379945868072016 14.596212629254268 20.983554396960937 0 0 0
529 1 -3.077731678807957 15.347606779086385 18.65908568139028 0 0 0
491 1 -0.039458375207306114 10.203184025865033 23.426826260827166 0 0 0
490 1 -0.033640627549971505 11.991796892519046 21.050528673912723 0 0 0
690 1 2.8148539584392895 11.954920531887685 21.022498131796887 0 0 0
709 1 1.5025638473647338 12.82646132400807 18.6588951607394 0 0 0
710 1 1.3628036346412908 14.659552717348921 20.98993830227124 0 0 0
909 1 4.338531378043565 12.81701012098896 18.696147722553178 0 0 0
910 1 4.457345333351625 14.403067737568856 21.08049647330967 0 0 0
711 1 1.434389541235731 12.728333242892582 23.362343916592973 0 0 0
890 1 5.794584357140792 11.917855282354235 20.964116056709262 0 0 0
1090 1 8.911839341962798 12.02780224661409 20.98232176327588 0 0 0
1110 1 7.407533616956118 14.559228401677785 21.10206075497599 0 0 0
1111 1 7.22248776062739 12.724315530594318 23.416193042238316 0 0 0
1131 1 5.8538887391043 15.477026738932524 23.421602373456697 0 0 0
1291 1 11.952233719089392 10.321600172768408 23.15644335483802 0 0 0
1290 1 11.8541786751369 11.928888737721229 21.057442216670168 0 0 0
1310 1 10.281229345620877 14.50896046238337 20.964290671476014 0 0 0
1510 1 13.135713924045277 14.525442490001105 21.065505324580823 0 0 0
1531 1 11.67922492625975 15.389385151618978 23.328100189383978 0 0 0
1490 1 14.827874866385939 11.974941032254156 21.11083193158119 0 0 0
1729 1 14.84765599792539 15.402129082170244 18.571768017166452 0 0 0
1489 1 14.64493360202601 10.163426519424313 18.61405667557444 0 0 0
1690 1 17.677050498510162 11.824668831667998 20.932695755607153 0 0 0
1710 1 16.214711864247967 14.44645812243555 21.16660149361182 0 0 0
1909 1 19.182602904284884 12.766239240750485 18.65055668861386 0 0 0
1910 1 19.07885590154649 14.42641765197189 20.955241751399747 0 0 0
1890 1 20.5249165600611 11.881767198575 21.02518483295436 0 0 0
129 1 -8.81801084091651 15.317178306879743 18.610331753919596 0 0 0
150 1 -10.344442790401798 19.692037549836826 21.16122966971914 0 0 0
151 1 19.2243330643633 17.697531980192416 23.36222392529366 -1 0 0
171 1 17.72886702158896 20.349108711840223 23.552877838047074 -1 0 0
331 1 -5.902983215691669 15.315338900824765 23.486833238846117 0 0 0
131 1 20.617487013118186 15.331671175207575 23.373995473547517 -1 0 0
130 1 -8.886779506712843 17.04019781850488 21.058697671875976 0 0 0
330 1 -5.918649848035128 17.092260238145222 21.16336710699057 0 0 0
350 1 -7.541331990806553 19.615240817614676 21.002533283831603 0 0 0
369 1 -8.916214876691123 20.43511511818327 18.72138158803154 0 0 0
531 1 -3.0348703467299125 15.368310735658442 23.324056435204476 0 0 0
530 1 -3.11466896956768 16.899953089505267 20.925979663867757 0 0 0
549 1 -4.569455698260526 17.86750567138946 18.649400915071457 0 0 0
550 1 -4.525252852069885 19.58397356654217 21.029452752472356 0 0 0
749 1 -1.633215930365068 17.8862974581073 18.72268673389209 0 0 0
750 1 -1.659282468664036 19.558674057544003 21.087692533852138 0 0 0
551 1 -4.362998925698221 17.819299123757055 23.373308440720894 0 0 0
751 1 -1.6018692654148066 17.879852888441363 23.365183272230873 0 0 0
731 1 -0.11714034349185033 15.296543976302136 23.241219195670595 0 0 0
929 1 2.746566417326861 15.310217910221757 18.828711087157455 0 0 0
931 1 2.937091490151593 15.405929771640446 23.194086383204905 0 0 0
730 1 -0.037445632459417524 17.229177477227765 21.096958771189236 0 0 0
930 1 3.078255017903848 17.10479375199283 21.062146842692943 0 0 0
949 1 1.5076822963638077 17.926527058542945 18.730493380570106 0 0 0
950 1 1.4367923530799984 19.62758672847687 20.98687248414954 0 0 0
1150 1 4.433898437723319 19.627304842311304 21.013821893016534 0 0 0
1151 1 4.56278827780334 17.981434111040002 23.43978062649655 0 0 0
1130 1 5.973614130203122 17.060494465215726 20.980419260526645 0 0 0
1330 1 8.872564640170669 17.058901275713602 20.964721706246436 0 0 0
1350 1 7.438619098409489 19.63183560507988 20.9505766639102 0 0 0
1351 1 7.299398250931609 17.926951000636585 23.43662825930055 0 0 0
1371 1 5.952322941671816 20.568280449548546 23.370235837693485 0 0 0
1529 1 11.783453628335655 15.205211868081017 18.723019569409068 0 0 0
1530 1 11.717650115603437 17.01014411414829 21.08592470519246 0 0 0
1549 1 10.326446546021469 17.88116465429961 18.66800103968453 0 0 0
1550 1 10.265088379298586 19.662701191285755 21.0317955718467 0 0 0
1750 1 13.340926734270836 19.60989276579126 20.90155786293508 0 0 0
1551 1 10.142209563717596 17.83645932502521 23.444766271707138 0 0 0
1751 1 13.233019369410814 17.856030032342197 23.400609358804317 0 0 0
1730 1 14.74131091687671 17.005153500672805 21.054847485659984 0 0 0
1929 1 17.702812995802645 15.16676704845565 18.61819770452562 0 0 0
1731 1 14.694917036557818 15.337203691123824 23.34615784019889 0 0 0
1930 1 17.726984490024456 17.077385222592746 20.981619182514745 0 0 0
1949 1 16.038273257495007 17.818763145273742 18.645332074168707 0 0 0
1950 1 16.25007394513741 19.65172993554043 20.964868793866042 0 0 0
209 1 -11.927255128160445 25.457738547363213 18.64845119756503 0 -1 0
170 1 -11.788362358988097 22.09925096201421 20.99522720594524 0 0 0
190 1 -13.308920967858308 24.733376767671956 20.971202216963317 0 0 0
390 1 -10.378027432212486 24.61751558153994 20.902923498842643 0 0 0
391 1 -10.284297650944572 22.998885933079173 23.42580600502964 0 0 0
571 1 -5.9343420712005095 20.324403970544978 23.18189308697724 0 0 0
370 1 -8.980888983755607 22.14471842103945 21.064050452511957 0 0 0
570 1 -5.810595725042783 22.314904263258065 21.095761604402433 0 0 0
590 1 -7.468489238885279 24.709029948026867 20.883994244737313 0 0 0
411 1 -8.777194296234727 25.462335259318984 23.33780666671586 0 -1 0
611 1 8.858960503828813 0.03671135825110531 23.374954246325196 0 0 0
769 1 -3.074733521279185 20.453092618159516 18.721955389191105 0 0 0
771 1 -2.9847057653279374 20.511238056434657 23.36221368422413 0 0 0
770 1 -2.864571140777524 22.039499926205124 21.046265611219404 0 0 0
790 1 -4.332498453529559 24.706984895872708 20.904263530792893 0 0 0
989 1 -1.4274361498594703 23.012529588391516 18.6790488053771 0 0 0
990 1 -1.4460711161635775 24.541908594068914 21.126524247189085 0 0 0
991 1 -1.3856239742981569 23.0289095388681 23.4687166672429 0 0 0
970 1 0.0009001438957755685 22.111762685596652 21.036251923932497 0 0 0
1209 1 17.881331298305426 0.09534443450373581 18.67360484032618 0 0 0
1170 1 2.9776244312833904 22.244510687478844 21.056081765192886 0 0 0
1190 1 1.5357952750393167 24.762313750460024 21.061000184555315 0 0 0
1389 1 4.457116911979656 23.060456624157226 18.70678622980609 0 0 0
1390 1 4.469638535295881 24.892418171663053 20.98379174991194 0 0 0
1191 1 1.5030057205731342 22.910867517439684 23.397257919231706 0 0 0
1391 1 4.4624463957340845 23.123437718199618 23.33614467868 0 0 0
1409 1 5.863363489691721 25.526207930852692 18.637926777670444 0 -1 0
1370 1 5.937881646034399 22.181465427464367 20.898887365454133 0 0 0
1570 1 8.89790515006134 22.14193879641858 21.113828891554594 0 0 0
1589 1 7.333455004696424 23.025627541892185 18.620802927778296 0 0 0
1590 1 7.411099627903908 24.683216349021528 20.965482722921205 0 0 0
1591 1 7.513365260125808 23.117844255554225 23.35032672389733 0 0 0
1769 1 11.806197089947236 20.467914555289397 18.833837314946912 0 0 0
1771 1 11.655760237531918 20.353291268971226 23.217342267114397 0 0 0
1770 1 11.857133066382238 22.07223829163982 21.066154270122603 0 0 0
1790 1 10.334350306801129 24.78987044991338 21.038482716845678 0 0 0
1989 1 13.26733818480529 22.97264177919915 18.522241083728275 0 0 0
1990 1 13.303747530325216 24.776482613193664 21.034889699122896 0 0 0
1991 1 13.339291621464733 22.8076451636218 23.28339179567329 0 0 0
1970 1 14.790475598534936 22.133792688607073 21.01840869569172 0 0 0
32 1 -1.4411933382405686 4.248558880189056 25.738844074175173 0 0 0
12 1 0.007974045745269786 1.7778691971717617 25.931329632617427 0 0 0
253 1 0.06759358540908646 4.98374374256753 28.188422234205813 0 0 0
231 1 1.3905842774907198 2.4135124307187836 23.384452249787717 0 0 0
212 1 3.032018831610294 1.6570886374030374 25.702429563231213 0 0 0
232 1 1.4539085201427386 4.143744626704861 25.6644674004274 0 0 0
432 1 4.470038959806083 4.1177195069150345 25.547970545569296 0 0 0
233 1 1.5695539704473342 2.5591435384168406 28.09090028963195 0 0 0
453 1 2.9778611237184545 5.012174801421447 28.014481651395315 0 0 0
412 1 5.991384477327663 1.563340524670176 25.822037930194956 0 0 0
612 1 8.851459637173404 1.632092139967011 25.78401171526978 0 0 0
632 1 7.458130958730909 4.091994489260827 25.707806617391462 0 0 0
633 1 7.264182244770368 2.449554386701142 28.10021361260167 0 0 0
853 1 8.758446691093267 5.009565658155847 28.0830523385764 0 0 0
413 1 -8.935467181115893 25.350347638147298 28.01273473599338 0 -1 0
812 1 11.827701602801618 1.7458366663698694 25.680212250448395 0 0 0
832 1 10.318519500957951 4.22345535543448 25.849056480403572 0 0 0
1032 1 13.248823832272102 4.25933695315156 25.708900133282622 0 0 0
1012 1 14.733806896382248 1.6732277904243693 25.764773658120745 0 0 0
833 1 10.322146822794434 2.5717692293375154 28.108787163522855 0 0 0
1231 1 16.30643452693365 2.6585436177698902 23.50559549515316 0 0 0
1431 1 19.28876089395751 2.6374337516786786 23.478591546139395 0 0 0
1211 1 2.9704596973986495 25.546674228666653 23.356711207377625 0 -1 0
1212 1 17.712025118887965 1.769809567530306 25.834297909161652 0 0 0
1232 1 16.214245663801847 4.357570339753033 25.70560519434866 0 0 0
1432 1 19.11054461630639 4.272093734687755 25.82349562210083 0 0 0
1233 1 16.23058839623247 2.590771243360398 28.23159962848721 0 0 0
1611 1 23.65104007567995 0.11060655712758756 23.414094108566044 0 0 0
1412 1 20.59475361596514 1.8252136328965545 25.84442009762466 0 0 0
1612 1 23.529766483605485 1.8316522135916815 25.790841173001695 0 0 0
1632 1 22.039124766749588 4.2816910129060135 25.879665473172206 0 0 0
1811 1 11.86626451764669 25.501893813760653 23.33930735945314 0 -1 0
1812 1 26.690760904270185 1.7355565214695072 25.88407159369543 0 0 0
1832 1 25.045553136264587 4.197329945356376 25.71310573941491 0 0 0
33 1 -1.4238315621978852 2.62290162333904 28.20548131643115 0 0 0
1833 1 25.07720656163339 2.490761198231052 28.026819584234886 0 0 0
1813 1 11.909769141760352 25.49695393997932 28.228721011063445 0 -1 0
251 1 -0.01946425086164561 5.085699517254355 23.327321428699086 0 0 0
52 1 -3.0009005185652575 6.802059565992138 25.80008086229194 0 0 0
72 1 -4.424653667313479 9.22501897158996 25.82767855370948 0 0 0
272 1 -1.3231931622953035 9.212454974116833 25.745442772234416 0 0 0
252 1 -0.018058012873472133 6.7739052430263795 25.798776933945245 0 0 0
671 1 4.344438932367303 7.622027939336793 23.261014400241564 0 0 0
452 1 2.990691244929469 6.78907021815968 25.77101584799351 0 0 0
472 1 1.5835790527254783 9.36055446645937 25.838850601406843 0 0 0
672 1 4.511776192385836 9.274773836823178 25.727447633426056 0 0 0
651 1 5.85820258373742 5.114720829084049 23.405864962365644 0 0 0
851 1 8.840816129898656 5.0588325406825465 23.448752726665564 0 0 0
1091 1 8.922769412011528 10.165140947060664 23.41902989185943 0 0 0
652 1 6.0065944120702595 6.682153605486044 25.639174315076655 0 0 0
852 1 8.93151130361319 6.796088322469877 25.741086235699317 0 0 0
872 1 7.432785505929499 9.332730945395271 25.747147061052754 0 0 0
873 1 7.405348303503799 7.522735464457764 27.91213383099293 0 0 0
1093 1 8.89735544692937 10.160095679661113 28.099748847980727 0 0 0
1251 1 14.651127999091669 5.113570293267148 23.410501793091665 0 0 0
1052 1 11.797031196702125 6.784357027520861 25.72267185463754 0 0 0
1072 1 10.542047042586079 9.378999985912719 25.804244738170667 0 0 0
1272 1 13.298889039088811 9.524181338209184 25.84083509529395 0 0 0
1252 1 14.751853863936528 6.854845061847657 25.838023736597194 0 0 0
1053 1 11.815705550966674 5.08979327206948 28.103371155652717 0 0 0
1073 1 10.426602346973565 7.522105989964419 28.131820085691203 0 0 0
1451 1 17.548163834679485 5.044123724909298 23.430763866075033 0 0 0
1471 1 16.16230169188922 7.636876781203359 23.236390736935522 0 0 0
1671 1 19.12106334317604 7.62340427013958 23.38117446937705 0 0 0
1452 1 17.672951692462824 6.8358661010973725 25.708672790917127 0 0 0
1472 1 16.270207130238724 9.43403678889578 25.592066334161082 0 0 0
1672 1 19.235988689904204 9.25769723978216 25.729730073351657 0 0 0
1652 1 20.649044442099914 6.672067476728385 25.895431288910036 0 0 0
1852 1 23.64747980022429 6.821825151350152 25.865926064241823 0 0 0
1872 1 22.17741899315127 9.312758077928168 25.780187693027166 0 0 0
1853 1 23.72175784310567 5.137722368462262 28.088593335245278 0 0 0
53 1 26.547771988102404 5.0724293238695815 28.223714418742464 -1 0 0
111 1 -7.348451782738672 12.737493259925506 23.43820570878762 0 0 0
92 1 -5.778691609373625 11.845535758362468 25.71216874660281 0 0 0
112 1 -7.421160832214718 14.500418817712184 25.83774825542765 0 0 0
333 1 -5.912942000399624 15.282845584582299 27.918750206429962 0 0 0
133 1 20.45206148692452 15.213177544149714 28.116384810079133 -1 0 0
311 1 -4.412803139662546 12.684638301898833 23.41747058945773 0 0 0
511 1 -1.5156470325606437 12.936672920087007 23.43772974302743 0 0 0
292 1 -2.91109672521816 11.918508909491347 25.84457691449842 0 0 0
312 1 -4.308971590648036 14.361054193772585 25.833755559646235 0 0 0
512 1 -1.529890646395007 14.474428922412553 25.693534966336866 0 0 0
293 1 -2.8242065294095973 10.212601943844065 28.083674426294568 0 0 0
313 1 -4.347639565467784 12.662040679762065 28.10764623974107 0 0 0
691 1 2.891194386914742 10.229418857515423 23.509263935535074 0 0 0
911 1 4.276371521971815 12.732189443172418 23.362248337980343 0 0 0
492 1 0.025647216255509538 11.92771058388771 25.760679442334474 0 0 0
692 1 2.886361724581702 11.907530721785196 25.78476068465173 0 0 0
712 1 1.5048485952578037 14.568690603778473 25.658412395805566 0 0 0
912 1 4.279600841957817 14.502916752858164 25.725347314750373 0 0 0
891 1 5.9106712629433185 10.067475293634287 23.335080089396456 0 0 0
1331 1 8.790171808402786 15.387522277970131 23.33831990187407 0 0 0
892 1 5.841581151435439 11.875731655205877 25.533732213038565 0 0 0
1092 1 8.847563945857312 11.890067488518392 25.836019263510064 0 0 0
1112 1 7.285386239394955 14.558681463827563 25.665569949670477 0 0 0
1333 1 8.77346389773233 15.100984562346254 28.192382094025852 0 0 0
1311 1 10.217797974787763 12.812537663965959 23.46208670158756 0 0 0
1511 1 13.388116276551097 12.8955361024234 23.354361617067983 0 0 0
1292 1 11.850704211414705 12.002607282063028 25.604317570241943 0 0 0
1312 1 10.430402726695988 14.54941355318812 25.751355940909097 0 0 0
1512 1 13.256901753693134 14.505092746065952 25.69323298246703 0 0 0
1513 1 13.19599769884877 12.861400624160398 28.023878900097912 0 0 0
1491 1 14.773040574710665 10.3265791259895 23.402479261105416 0 0 0
1691 1 17.796670664522097 10.09928957485809 23.418476907323903 0 0 0
1711 1 16.374473885334737 12.821078581394946 23.381193538183606 0 0 0
1911 1 19.213274945382103 12.671374616470018 23.31000669950345 0 0 0
1492 1 14.834694482015413 11.94072755715502 25.85269970744063 0 0 0
1692 1 17.78020233578932 11.98619195719061 25.780907139195687 0 0 0
1712 1 16.221016262215166 14.373681033462535 25.810872717387667 0 0 0
1912 1 19.219690939405943 14.504080029627422 25.62738352466704 0 0 0
1713 1 16.209310278337725 12.682974395018656 28.1012298472561 0 0 0
1891 1 20.615915846187924 10.273643813267181 23.39993657439079 0 0 0
1892 1 20.685765811708677 11.961311036429045 25.828292819192928 0 0 0
1893 1 20.80116765446939 9.988020357074227 28.127541305634733 0 0 0
113 1 -7.246537972020151 12.75720030179296 28.243633912555605 0 0 0
152 1 -10.118948213559813 19.46048065332014 25.913560303052094 0 0 0
351 1 -7.354655275261947 17.87988116656843 23.512660370613617 0 0 0
371 1 -8.820911992932103 20.50310914402919 23.521361103020737 0 0 0
132 1 -8.929255035866925 17.01997224891182 25.826339569619844 0 0 0
332 1 -5.870032140631484 17.053297780640015 25.734615325413362 0 0 0
352 1 -7.280772999305889 19.649099167234603 25.75398319885112 0 0 0
532 1 -3.07473233012729 17.01249400429851 25.778842752616217 0 0 0
552 1 -4.465434248884828 19.681524982957768 25.700670872968697 0 0 0
752 1 -1.500814067678797 19.551044470727952 25.545273919082497 0 0 0
533 1 -3.0592320965495956 15.361869694036622 28.04592005360319 0 0 0
553 1 -4.514490694258669 17.881845355617074 28.056519704587988 0 0 0
753 1 -1.4469663991045278 17.868264727318163 27.962814231141227 0 0 0
773 1 -3.0178845053279764 20.460755287181357 27.950307821439488 0 0 0
951 1 1.4634259386305029 17.901384283872382 23.434241225344802 0 0 0
732 1 -0.15538751220516572 17.010786169595995 25.590481784535367 0 0 0
932 1 2.8819853574538135 17.06388332423719 25.694953421107776 0 0 0
952 1 1.521475288831646 19.644684099615 25.740215614650683 0 0 0
1152 1 4.4159575505464845 19.644771583779672 25.844820282991236 0 0 0
953 1 1.3749558409313112 17.952692262040152 28.250946830499142 0 0 0
1173 1 2.8110761262250294 20.426152266634652 28.270752929279332 0 0 0
1571 1 8.694751640135369 20.46826729777667 23.41975879705456 0 0 0
1132 1 5.74859118866359 17.049017045223998 25.684234948568367 0 0 0
1332 1 8.754746446666745 17.07187705961603 25.873696688333112 0 0 0
1352 1 7.524628156160653 19.53112295917139 25.74812971608095 0 0 0
1353 1 7.2660449454746106 17.821608504496638 28.25275442344473 0 0 0
1532 1 11.702506648684134 17.098860440045556 25.745626750061813 0 0 0
1552 1 10.310613179960237 19.66953056365258 25.653701092539556 0 0 0
1752 1 13.205296767637094 19.57328677839461 25.74197491945505 0 0 0
1533 1 11.693723993070263 15.327118845083733 28.113413677658098 0 0 0
1553 1 10.385047645824281 17.90272497298966 28.00827902053446 0 0 0
1753 1 13.268242735203758 17.728808273456714 28.160366694988426 0 0 0
1973 1 14.713635522932957 20.493159435709906 28.0875838902811 0 0 0
1931 1 17.703456235621132 15.337800715153152 23.35843925877925 0 0 0
1951 1 16.213420132446025 17.901079063271887 23.39976548084323 0 0 0
1971 1 14.761641045337688 20.413750899925283 23.37536050965338 0 0 0
1732 1 14.756275741931525 16.962550791282652 25.727519772027026 0 0 0
1932 1 17.756840103344054 16.996656778697407 25.656418163541993 0 0 0
1952 1 16.183332053278406 19.48861437139604 25.82926379103213 0 0 0
191 1 -13.200452680669246 22.918146109938085 23.30364182530302 0 0 0
172 1 -11.956629403328643 22.149651393055045 25.741008061862708 0 0 0
192 1 -13.246663697275123 24.584472859621613 25.703125643157342 0 0 0
392 1 -10.411070073320625 24.74517232660709 25.789741238379477 0 0 0
393 1 -10.287461894419993 22.84441869676889 28.03052366401302 0 0 0
591 1 -7.409280175106592 22.933648474803668 23.336123812361823 0 0 0
372 1 -8.939243903368682 22.296863920418104 25.69136604270561 0 0 0
572 1 -5.972451713523103 22.067584807942474 25.710824843831602 0 0 0
592 1 -7.256713022956131 24.74191222695351 25.73004103635975 0 0 0
573 1 -5.835212251937849 20.347718790503293 28.151460870592143 0 0 0
613 1 8.70493912280719 0.009407947655314925 28.178218480427685 0 0 0
593 1 -7.126366817545155 22.888171094195542 28.14356428954411 0 0 0
791 1 -4.525114111806029 22.908089691163035 23.361890372179726 0 0 0
772 1 -2.995560203572107 22.13967886298113 25.74069987767895 0 0 0
792 1 -4.374526628054656 24.55028330307841 25.877877641905904 0 0 0
992 1 -1.3739606333860774 24.713063904457655 25.73851066853611 0 0 0
972 1 0.023735543223822493 22.09015337512711 25.86838401980851 0 0 0
973 1 -0.1017483569374714 20.375098695593138 28.130943916760064 0 0 0
1013 1 -0.04345826721736677 25.436829700277713 28.074032211566564 0 -1 0
971 1 -0.01793603006450551 20.48778802959137 23.348806147397056 0 0 0
1171 1 3.0361827213113455 20.43065668327521 23.386966024410565 0 0 0
1172 1 2.933935110305538 22.293164995692955 25.740064212196362 0 0 0
1192 1 1.5099316388890454 24.625232990983292 25.862959157862637 0 0 0
1392 1 4.456788517364099 24.752138323106877 25.781602261538875 0 0 0
1193 1 1.4561680490391398 23.033465553235274 28.18502081896925 0 0 0
1372 1 5.953351163972063 22.218313108457203 25.70902963626364 0 0 0
1572 1 8.876634079110254 22.157785169937334 25.82695659452038 0 0 0
1592 1 7.448788366418181 24.88057767598658 25.797949730306787 0 0 0
1373 1 6.012809831619488 20.31527078082903 28.294798820381132 0 0 0
1613 1 23.684754775350108 0.10710572457654315 28.094862268218918 0 0 0
1593 1 7.4740329916200485 23.00490203922506 28.003456757949813 0 0 0
1791 1 10.355452134897183 23.06972970864779 23.395810260380916 0 0 0
11 1 14.68241498848638 25.494695102681412 23.368678588233212 -1 -1 0
1772 1 11.861714762152408 22.11764109571537 25.75252194287719 0 0 0
1792 1 10.25771615847767 24.75722111924341 25.76824778745989 0 0 0
1992 1 13.251475772995796 24.49453992065132 25.83581387160469 0 0 0
1993 1 13.394344158786433 22.920831105754942 28.268662640538633 0 0 0
13 1 -14.543352128247882 25.468226042433237 28.100132419017264 0 -1 0
1972 1 14.635002136650746 21.949631960588476 25.777847091519103 0 0 0
193 1 -13.2099520541507 22.90017062547882 28.038889158656495 0 0 0
34 1 -1.517200799650998 4.216539800130099 30.538478440215027 0 0 0
14 1 0.10782432495539704 1.5675202197852227 30.470151693088027 0 0 0
214 1 3.022357847749898 1.692869915079814 30.566315460872325 0 0 0
234 1 1.430245947090825 4.26314188271212 30.427590119838868 0 0 0
433 1 4.465793888106814 2.4336373510810674 28.101907949507094 0 0 0
434 1 4.348696677808543 4.191893937559582 30.39720012456105 0 0 0
213 1 -11.752760505438744 25.48918784821936 28.15077554635948 0 -1 0
215 1 -11.746641805458816 25.37202897611221 32.75112142183977 0 -1 0
414 1 5.878483338741344 1.518354638575086 30.51990356081633 0 0 0
614 1 8.756768561607656 1.6739336439994064 30.395828307054753 0 0 0
634 1 7.232394304898437 4.239790696524887 30.38905791989221 0 0 0
653 1 5.897900929396674 5.055748985499856 28.14703729363593 0 0 0
635 1 7.351941390395818 2.4842538644586356 32.92080348619395 0 0 0
655 1 5.735481967726255 4.973275136331148 32.60146099090093 0 0 0
415 1 5.870879199126477 0.03438993694302534 32.872660026779315 0 0 0
615 1 8.840923285299565 0.02045756133541272 32.913211315720915 0 0 0
814 1 11.763310898944235 1.616411960321568 30.452370232106077 0 0 0
834 1 10.226727046091181 4.295760438706318 30.37833521613225 0 0 0
1033 1 13.248579743515775 2.404095650868133 28.12150674841292 0 0 0
1034 1 13.13257253419146 4.204929260922241 30.571632405367435 0 0 0
1014 1 14.71063431856483 1.6790895501863345 30.410985311988522 0 0 0
835 1 10.343202025220616 2.5637744549041788 32.89351605299311 0 0 0
813 1 11.62485674739945 0.10885995482852372 28.26979432290071 0 0 0
1015 1 0.09130781445775597 25.525502255079296 32.869168485706325 0 -1 0
1214 1 17.76933303891824 1.8116372485268994 30.408564073060326 0 0 0
1234 1 16.258560384831263 4.253453216824093 30.513051866577413 0 0 0
1433 1 19.07971719862997 2.567169587881747 28.109852379931656 0 0 0
1434 1 19.079057079072285 4.3764647412308815 30.577292073703713 0 0 0
1235 1 16.160997218776536 2.605658736678589 32.74194558876788 0 0 0
1435 1 19.04523587173398 2.6523153998083697 32.738457830489594 0 0 0
1455 1 17.58157216350567 5.1943466883125735 32.80018945732681 0 0 0
1213 1 17.736648612284725 0.0652599108795587 28.29885373306422 0 0 0
1215 1 17.615631463033623 0.08059529781573915 32.67124725241712 0 0 0
1414 1 20.568452853874803 1.7471278073922365 30.37162199417997 0 0 0
1614 1 23.598725366425562 1.603499509593512 30.411526680749976 0 0 0
1633 1 22.17069088647017 2.6582103170963545 28.1542278023686 0 0 0
1634 1 22.21508869233515 4.371305591235615 30.56009515427458 0 0 0
1653 1 20.6714017968524 4.932421242779583 28.286450740514933 0 0 0
1413 1 5.908171142540417 25.45805838318288 27.9969732985508 0 -1 0
1814 1 26.456906103612013 1.5577381894142688 30.456571477105694 0 0 0
1834 1 25.069949854619097 4.150320007633004 30.338849282348495 0 0 0
35 1 28.02543960689942 2.532276637923104 32.743473116363845 -1 0 0
1835 1 25.04542601109692 2.432062759361681 32.81327644926502 0 0 0
1815 1 11.771692502271327 25.457230612203347 32.91744661270825 0 -1 0
54 1 -2.97311160248465 6.637713401646546 30.617926324729403 0 0 0
74 1 -4.194465782826768 9.425111811901171 30.557439517522823 0 0 0
273 1 -1.397834737245745 7.603339335565121 28.174106423216244 0 0 0
274 1 -1.4273642814001484 9.213194526384015 30.420281401311932 0 0 0
295 1 -2.881788835554623 10.141565617597463 32.82400006503592 0 0 0
73 1 -4.295297758214075 7.7897153891771564 28.210182080879434 0 0 0
254 1 -0.039105692656604275 6.710729177479378 30.377997077696808 0 0 0
454 1 2.9831165876826673 6.917149605246271 30.410366091095245 0 0 0
473 1 1.483361991977139 7.6542234904986595 28.041131157428 0 0 0
474 1 1.5036213585662805 9.439043455620775 30.28598391386519 0 0 0
673 1 4.539220088002855 7.673945515702122 28.112322693745433 0 0 0
674 1 4.424718810374762 9.34180491002036 30.3477640943355 0 0 0
693 1 2.951253952439626 10.128528931580995 28.087624643588207 0 0 0
675 1 4.423412140877622 7.592454618529425 32.76999833854097 0 0 0
695 1 3.0250605415970604 10.122328898655125 32.72904591947898 0 0 0
654 1 5.859660044012993 6.802919920683364 30.424392863074026 0 0 0
854 1 8.786822576633673 6.712980603860796 30.350375896228986 0 0 0
874 1 7.296634385474816 9.426919365440435 30.31619793290097 0 0 0
893 1 5.9515842145725 10.34194566000187 27.97237710325512 0 0 0
1095 1 8.847914041996649 10.138260749419858 32.74303793550804 0 0 0
1253 1 14.699163715333668 5.0061267054334 28.148884615475566 0 0 0
1054 1 11.8585525397428 6.859538524426008 30.40586677468287 0 0 0
1074 1 10.32536456823255 9.417981167155228 30.406319276552292 0 0 0
1273 1 13.29897043988816 7.617748303246365 28.038047460592537 0 0 0
1274 1 13.276331791371623 9.395613587375372 30.527971872370852 0 0 0
1295 1 11.856930963238101 10.201436931528542 32.91542268493903 0 0 0
1255 1 14.700358538990784 5.12019204603922 32.807623155656415 0 0 0
1453 1 17.646504553104073 5.268390905866066 28.034522869729336 0 0 0
1254 1 14.652726840134246 6.881009481419612 30.397081355407796 0 0 0
1454 1 17.670080303272783 6.860474965954714 30.491196570328967 0 0 0
1473 1 16.228467167226874 7.665026965357573 28.178512673100876 0 0 0
1474 1 16.16702659272253 9.26667807910068 30.46358958255814 0 0 0
1673 1 19.254633165808507 7.516502399933094 28.12713857952613 0 0 0
1674 1 19.246800940979547 9.361117044703954 30.57351842919689 0 0 0
1493 1 14.825559979933292 10.32059736210583 28.092865919298454 0 0 0
1675 1 19.111432018026676 7.705387630327976 32.77239807346905 0 0 0
1654 1 20.699096196406366 7.028660209651473 30.525632577517666 0 0 0
1854 1 23.515971976897106 6.871799327747843 30.41144711117511 0 0 0
1873 1 22.190222978503854 7.622875274555917 28.094929889882586 0 0 0
1874 1 22.124869741263844 9.60621736089654 30.53121252849861 0 0 0
95 1 -5.779011879267338 10.284717957327755 32.80062035949494 0 0 0
94 1 -5.840416213435238 12.012525051072926 30.479905428415332 0 0 0
114 1 -7.200763892473831 14.645841609612432 30.48771342725975 0 0 0
294 1 -2.713371063362776 11.972403926431706 30.593162795701875 0 0 0
314 1 -4.321585374126028 14.526761598580466 30.433824409277076 0 0 0
513 1 -1.4840420531850498 12.843232681335802 28.23105822677688 0 0 0
514 1 -1.3676994990055338 14.543787272785243 30.415247447530035 0 0 0
315 1 -4.3798625387656935 12.70290694129763 32.85173918370951 0 0 0
493 1 -0.013376082416706498 10.182130180549665 28.12167816746468 0 0 0
494 1 -0.003954222995901117 11.875322784656978 30.59787800783535 0 0 0
694 1 2.971178940192046 11.826928562554208 30.499520597369102 0 0 0
713 1 1.4047871267249832 12.673832284613784 28.01376435092489 0 0 0
714 1 1.4615670797710427 14.440412264691819 30.41652851560763 0 0 0
913 1 4.41340453468341 12.670109455920159 27.984652504138033 0 0 0
914 1 4.553584130887411 14.40624649135529 30.453211927874836 0 0 0
894 1 5.959607965586624 11.775365534654068 30.602364275708524 0 0 0
1094 1 8.75941931152707 12.024926656667908 30.25448512098505 0 0 0
1113 1 7.263119529328321 12.824313359928189 27.891819431331317 0 0 0
1114 1 7.286871777938779 14.503170367836944 30.47758112485916 0 0 0
1133 1 5.797094432887573 15.28969891207938 28.046724453241698 0 0 0
1135 1 5.935805261048659 15.194357420848416 32.906966120813934 0 0 0
1335 1 8.825496625094322 15.191243610447152 32.63838092517692 0 0 0
1293 1 11.868356699070622 10.177486235745357 28.14940432559211 0 0 0
1294 1 11.598246654204917 11.959329498060914 30.519181755983183 0 0 0
1313 1 10.444171075049715 12.751913366299021 27.928073408639186 0 0 0
1314 1 10.286908088793684 14.447095098444557 30.44815655315091 0 0 0
1514 1 13.293943105920471 14.495632298725436 30.481247088899288 0 0 0
1315 1 10.31287876268702 12.783733994176998 32.905158678313526 0 0 0
1515 1 13.239143303677823 12.754144486986812 32.85294376454499 0 0 0
1693 1 17.679882652192006 10.133023081238878 28.088282240628363 0 0 0
1494 1 14.511739761464488 11.896984189014463 30.417446983439394 0 0 0
1694 1 17.75928810219405 11.87525680203521 30.589901062696917 0 0 0
1714 1 16.237384156421136 14.39419895697699 30.4095337506875 0 0 0
1913 1 19.176159848521138 12.648930484341093 28.254077779260825 0 0 0
1914 1 19.251759180332577 14.421446173769532 30.478910157942227 0 0 0
1933 1 17.694435662843297 15.205613262612589 28.07924027037801 0 0 0
1715 1 16.100975040348594 12.772293709652793 32.84267400385218 0 0 0
93 1 -5.82765819906592 10.191308331417545 28.182717612884698 0 0 0
1895 1 20.86115760884453 10.172102585065092 32.897968074831766 0 0 0
1894 1 20.627199539903422 11.906258420565747 30.57256068217781 0 0 0
115 1 -7.332476490550922 12.887217588644335 32.81865686022719 0 0 0
154 1 -10.441733501272784 19.634747025146282 30.51316950166991 0 0 0
153 1 19.18724739268812 17.801888116467815 28.21570548525987 -1 0 0
173 1 17.717027024152983 20.364843947821498 27.967519660432167 -1 0 0
135 1 20.612955804891868 15.312740442587534 32.87412791307099 -1 0 0
134 1 -8.837514181510038 17.041127406914534 30.356982687309284 0 0 0
334 1 -5.935132286025234 17.106523752375878 30.438573343895047 0 0 0
353 1 -7.357263062573932 17.823248227315375 27.962533604626056 0 0 0
354 1 -7.400768295131253 19.52921309932872 30.48099949437228 0 0 0
355 1 -7.383469552836133 17.899587326762784 32.88117206669524 0 0 0
375 1 -8.749070011431897 20.425680083784393 32.807689671504775 0 0 0
535 1 -2.8800754535443573 15.345613846207135 32.817744347394424 0 0 0
735 1 0.06710154330570454 15.355315545496524 32.77603924857016 0 0 0
534 1 -2.8840067046485487 17.078800829489722 30.411491556770965 0 0 0
554 1 -4.246924341915652 19.5964739095392 30.535553603850374 0 0 0
754 1 -1.5036163185786853 19.51038120138346 30.570461369227836 0 0 0
555 1 -4.399634503268677 17.87289078721392 32.74194485291714 0 0 0
755 1 -1.428808105793947 17.81145075273063 32.8582373067394 0 0 0
734 1 -0.04963230394624055 17.002824508750912 30.497522450297243 0 0 0
733 1 -0.01636545422875733 15.229841129636931 28.1649565221885 0 0 0
933 1 2.8887387610962127 15.29458363032517 28.076549362821336 0 0 0
934 1 3.000815378174072 16.969457490286793 30.277719654021734 0 0 0
954 1 1.4357182496202539 19.695390154606024 30.63187281411392 0 0 0
1153 1 4.401638682791485 17.920146862214196 28.049768840060032 0 0 0
1154 1 4.309267591095883 19.531265970833687 30.488665235863735 0 0 0
1155 1 4.521227459107894 17.868539328814656 32.863111827103154 0 0 0
975 1 0.0555651929343695 20.483169956620813 32.985017188772574 0 0 0
1134 1 5.692769768827687 17.04645271973498 30.45988547106916 0 0 0
1334 1 8.802422651098214 16.97662282100046 30.299716916620554 0 0 0
1354 1 7.518563239696678 19.663124808825764 30.619632701114796 0 0 0
1573 1 8.924902776167182 20.408211662564966 28.140729911910512 0 0 0
1355 1 7.371451102236807 17.74151135452975 32.83940701773348 0 0 0
1733 1 14.724591320663466 15.142690433884466 28.144807396532734 0 0 0
1534 1 11.744146588583071 16.945575183674542 30.491844450393703 0 0 0
1554 1 10.346744980999008 19.444977687017264 30.462346530913784 0 0 0
1754 1 13.277493093866548 19.398437520184686 30.628447066978154 0 0 0
1773 1 11.910282883664093 20.464222903588244 28.228582177794603 0 0 0
1555 1 10.263762259117058 17.832374285831982 32.80300893419893 0 0 0
1935 1 17.691319655678583 15.348308902051967 32.859232337351884 0 0 0
1734 1 14.792967393776097 17.005852271996964 30.489095023355976 0 0 0
1934 1 17.78626043149827 17.005528325810843 30.430755010727996 0 0 0
1953 1 16.124225752883177 17.880250874996193 28.155260264331147 0 0 0
1954 1 16.178425078423857 19.57214550778805 30.483438545931914 0 0 0
155 1 -10.177650798117778 17.855608543485097 32.842240327052295 0 0 0
174 1 -11.89639559864463 22.099319663114976 30.43269680940268 0 0 0
194 1 -13.285162250898335 24.662010236166502 30.488019732119486 0 0 0
394 1 -10.399795490793343 24.58182219675188 30.407941887996635 0 0 0
373 1 -8.746136304233035 20.435702403353353 28.162370767571606 0 0 0
575 1 -5.888018124783551 20.37931349511713 32.71658975831332 0 0 0
374 1 -8.983099592006804 22.058567064709187 30.330096644435326 0 0 0
574 1 -5.8600994670232 22.089373575130978 30.497354960166913 0 0 0
594 1 -7.343556295194325 24.563741948162125 30.34252389049516 0 0 0
775 1 -2.975571645645126 20.504146368763976 32.875356218490566 0 0 0
774 1 -3.0355174256661863 22.17590707217377 30.48020647397863 0 0 0
793 1 -4.430249131227044 22.988080777003695 28.126071482019697 0 0 0
794 1 -4.488408307064028 24.668696502009702 30.530791349089693 0 0 0
993 1 -1.4299586191159817 22.96479262569924 28.118650153574514 0 0 0
994 1 -1.443020576125254 24.60107193479496 30.60054097281855 0 0 0
795 1 -4.455916772007753 22.978798348993934 32.94200328764208 0 0 0
995 1 -1.3400300931724916 22.928717586707577 32.823890016777725 0 0 0
974 1 -0.04817488181712462 22.02165217787227 30.54280168549251 0 0 0
1174 1 2.955138265049528 22.168728329295035 30.471627233948816 0 0 0
1194 1 1.466533195919319 24.698453599530936 30.41631362996739 0 0 0
1393 1 4.396623503792358 22.92713416612787 28.108450906813214 0 0 0
1394 1 4.349411595758359 24.658420264490445 30.4646225554125 0 0 0
1395 1 4.411864355521225 23.197199130386238 32.89737039088416 0 0 0
1575 1 8.736941888840565 20.455190260449548 32.85510841163698 0 0 0
1374 1 5.911471244184033 22.201806517635134 30.403975404540706 0 0 0
1574 1 8.842081057988212 22.11429549042527 30.54951134547443 0 0 0
1594 1 7.401899376334041 24.729060653194125 30.439555225798195 0 0 0
1415 1 20.71645684478475 0.16107082717960064 32.59867244955453 0 0 0
1615 1 23.63952159204503 0.02786378691661365 32.72132724297556 0 0 0
1774 1 11.785373728659446 22.00483340707055 30.581637702041856 0 0 0
1793 1 10.450113884405804 23.01002006085173 28.147082557675574 0 0 0
1794 1 10.207330379803794 24.57364671018972 30.548017814401483 0 0 0
1994 1 13.24141624407552 24.557478687496072 30.55439559184313 0 0 0
1795 1 10.37618106967026 22.870635041591733 32.89936938792897 0 0 0
1974 1 14.706724829890852 22.008322585484784 30.47760987193706 0 0 0
255 1 0.03326698853482183 5.172253066542212 32.81818097047635 0 0 0
36 1 -1.4659367603216675 4.133410874095866 35.20601799266059 0 0 0
16 1 -0.061312022638199806 1.7516384763073454 35.09068230736685 0 0 0
235 1 1.5416824021997926 2.535812540188027 32.78778753381586 0 0 0
435 1 4.4136132531589105 2.554152374264118 32.85413064728867 0 0 0
455 1 2.8358456984107288 5.169865073028847 32.7590057842977 0 0 0
216 1 2.869270716952948 1.6607232228150757 35.08524501011152 0 0 0
236 1 1.4680866476132302 4.207838997899325 35.153111962902784 0 0 0
436 1 4.448385793140495 4.3539713020368795 35.20535891386561 0 0 0
237 1 1.4083214433719982 2.451538237375072 37.29696983257445 0 0 0
437 1 4.295486071564519 2.44897554228493 37.52849697982299 0 0 0
855 1 8.693241440041623 5.27119133735202 32.76410938686067 0 0 0
416 1 5.797684321222922 1.7459043476524279 35.065036405761475 0 0 0
616 1 8.823776017071648 1.619305371920985 35.15521236146533 0 0 0
636 1 7.3993512583619845 4.263491793958231 35.1234135972161 0 0 0
657 1 5.813737068372864 5.078420369686522 37.515702925953946 0 0 0
617 1 8.84668320708297 0.027007611670496118 37.521964930479015 0 0 0
1035 1 13.160451241204596 2.498755356216289 33.00130439183525 0 0 0
815 1 -3.1213940960051216 25.514041111536322 32.955626501752505 0 -1 0
816 1 11.703450618521979 1.5708796420194444 35.24565248558514 0 0 0
836 1 10.252000350686046 4.15982769397301 35.08825065963447 0 0 0
1036 1 13.253981443460827 4.162392343723214 35.226027187400675 0 0 0
1016 1 14.790161947935001 1.7004321329971877 35.254032486764146 0 0 0
1257 1 14.707083219074239 5.108629264717127 37.41616163542369 0 0 0
817 1 -2.9039934580954325 25.48078061868224 37.632226397670635 0 -1 0
1216 1 17.641323329155554 1.6575631734728156 35.06227191794393 0 0 0
1236 1 16.11715450276548 4.211215641128427 34.979860681548644 0 0 0
1436 1 19.15047974577417 4.18347081868101 35.104940889858526 0 0 0
1237 1 16.279310473375226 2.551945443317126 37.500391644922686 0 0 0
1635 1 22.14607237947898 2.576315287288582 32.690671844106134 0 0 0
1655 1 20.55882937804244 5.1746789682474015 32.674175503464696 0 0 0
1416 1 20.576037194987023 1.7310917771342655 35.15580584507342 0 0 0
1616 1 23.487809043898338 1.5690783180124352 35.080941149565945 0 0 0
1636 1 22.075698523237854 4.222390010723512 35.134259439216734 0 0 0
1657 1 20.555567937252427 5.196552714170834 37.540885748743875 0 0 0
55 1 26.54702279616381 5.000007585509202 32.86343266264841 -1 0 0
15 1 14.6797641447236 25.44575204419587 32.696969357121645 -1 -1 0
1816 1 26.577741425075992 1.6207940612614542 35.2250560856905 0 0 0
1836 1 25.13543802590243 4.124418179964891 35.114501802249166 0 0 0
1837 1 25.067092951104968 2.5053222282375622 37.58572509376654 0 0 0
275 1 -1.4518736557455232 7.601643430000772 32.99186372572511 0 0 0
495 1 -0.06060797981280337 10.109415642347956 32.90115437294391 0 0 0
56 1 -2.881311408788284 6.656034022990192 35.18886965701542 0 0 0
76 1 -4.2976040103268405 9.31731240221683 35.286371497813064 0 0 0
276 1 -1.405558575117774 9.323609280341786 35.37110858769803 0 0 0
256 1 0.09622963824057351 6.823032395963214 35.250996425704514 0 0 0
77 1 -4.372560108970731 7.692840114341674 37.64345697599005 0 0 0
475 1 1.4492214646457402 7.798532378049145 32.625081772299936 0 0 0
456 1 2.9327716605848577 6.887502659536367 35.122647141494255 0 0 0
476 1 1.455012992023896 9.51774207110158 35.09467800713108 0 0 0
676 1 4.396006652816959 9.330522654663097 35.12139918657985 0 0 0
875 1 7.260704394958866 7.588431492312572 32.70746622826577 0 0 0
895 1 5.953736033821765 10.148442228271456 32.83213353867329 0 0 0
656 1 5.975046881270831 6.781444294040774 35.05933109670194 0 0 0
856 1 8.95875739177778 6.776289759936917 35.178818435003976 0 0 0
876 1 7.4390014046726405 9.276708498434914 35.07073295272993 0 0 0
897 1 6.006948027258531 10.223935429895436 37.41907015589321 0 0 0
1055 1 11.700732828157417 5.228992958124185 32.87926936254149 0 0 0
1075 1 10.157344024507077 7.664826032000468 32.718981010936645 0 0 0
1275 1 13.196009272069087 7.632621340065213 32.73243691678999 0 0 0
1056 1 11.81379778519668 6.883081496820898 35.151721319297664 0 0 0
1076 1 10.237668699521791 9.33021384627511 35.08267268616724 0 0 0
1276 1 13.209305491776894 9.355425193730621 35.16292032964944 0 0 0
1256 1 14.600080662288516 6.860468086642422 35.11246791773877 0 0 0
1057 1 11.689430319988752 5.073516833683154 37.473570595056074 0 0 0
1277 1 13.378429334655046 7.616614945882428 37.55585680579006 0 0 0
1297 1 11.925364771817787 10.03382399861054 37.54280152726659 0 0 0
1475 1 16.100913438266332 7.731913467534748 32.85218048863955 0 0 0
1695 1 17.822275913965804 10.24513282476361 32.81356529675189 0 0 0
1456 1 17.72844574170407 6.683013481383282 35.18987121855821 0 0 0
1476 1 16.243215651112315 9.25802938887376 35.11678388763876 0 0 0
1676 1 19.207390586627717 9.367419041827864 35.06303829670145 0 0 0
1457 1 17.677454383438715 4.998041861368932 37.48797174430166 0 0 0
1697 1 17.678092579963298 10.194312153348147 37.435320210829786 0 0 0
1855 1 23.678763643476934 5.14498833804082 32.65978102407942 0 0 0
1875 1 22.210177881645876 7.748049633768216 32.88521325076796 0 0 0
1656 1 20.704098964820062 6.895815564580544 35.16886569286018 0 0 0
1856 1 23.696450184187356 6.76487703133992 35.130137691397096 0 0 0
1876 1 22.28756843882021 9.533157257044502 35.245485339522716 0 0 0
75 1 -4.384658443045492 7.751523377288159 32.795297517114136 0 0 0
96 1 -5.78911456850145 12.006690070096282 35.10116136877079 0 0 0
116 1 -7.2943970111191785 14.448420454180702 35.17086996750395 0 0 0
117 1 22.150751230996768 12.635866461584284 37.576543295012556 -1 0 0
515 1 -1.4341868778616336 12.744560245693702 32.9303835638715 0 0 0
296 1 -2.9587425744761595 11.895560333746545 35.18563005773201 0 0 0
316 1 -4.372710640873858 14.504469915922458 35.005131717578166 0 0 0
516 1 -1.3746153644207633 14.636777626800253 35.24899997005224 0 0 0
297 1 -2.989000285710141 10.186117947697243 37.65668271528736 0 0 0
715 1 1.4258272875516873 12.639211541418327 32.855181890649035 0 0 0
915 1 4.579942658156714 12.713571687247617 32.817616298334755 0 0 0
496 1 0.037790137577415554 11.863081506861132 35.333642147398564 0 0 0
696 1 2.9841101823146747 11.896152632263501 34.99179580763294 0 0 0
716 1 1.5277109913561402 14.51680603099703 35.09411860911348 0 0 0
916 1 4.341347929569516 14.483573650484793 35.225746340694585 0 0 0
717 1 1.5064870148508789 12.713981199707975 37.52712511064472 0 0 0
1115 1 7.342675985576601 12.654481042274812 32.73056391828564 0 0 0
896 1 5.976007169542914 11.877783449582727 35.05536300618007 0 0 0
1096 1 8.910479356644942 11.950186669285577 35.20181583206869 0 0 0
1116 1 7.403796222651901 14.367045620539676 35.14034011338771 0 0 0
1117 1 7.422348004696765 12.658004285180983 37.667684646049224 0 0 0
1137 1 6.015223492424009 15.242334964255631 37.52834613490852 0 0 0
1535 1 11.825507009707353 15.37806590629768 32.748135903314775 0 0 0
1735 1 14.678063399774596 15.22911724400072 32.944584082532515 0 0 0
1296 1 11.73477419520877 11.686623214804975 35.06681714077479 0 0 0
1316 1 10.433882382337437 14.477865814933725 35.10751770800107 0 0 0
1516 1 13.27693463566453 14.421629369353528 35.15980361487826 0 0 0
1497 1 14.803381625321238 10.238967561207016 37.49258770003384 0 0 0
1517 1 13.240056698450916 12.754594889813696 37.53827535504135 0 0 0
1537 1 11.769405587934987 15.438103971768875 37.609149950866666 0 0 0
1495 1 14.804219378931368 10.263273788941012 32.80850350956257 0 0 0
1915 1 19.18921599335515 12.68626842370763 32.824474050154606 0 0 0
1496 1 14.645672443198581 11.928391191723456 35.28322991308434 0 0 0
1696 1 17.57284679730803 11.926801004363499 35.06129289243057 0 0 0
1716 1 16.35069581091905 14.48429697618405 35.189518240779975 0 0 0
1916 1 19.191025939729464 14.446427056805076 35.21404235695573 0 0 0
1737 1 14.732894889863688 15.290115688753662 37.53320396563406 0 0 0
1896 1 20.752020418440033 12.012777143054063 35.2215468947938 0 0 0
137 1 20.61800310572839 15.149818607060773 37.584215007468316 -1 0 0
156 1 -10.245631527108834 19.48472265578763 35.26761587817353 0 0 0
335 1 -5.9217477859819665 15.430851277170552 32.86052027518559 0 0 0
136 1 -8.83370608882722 17.070129051237217 35.33179211045827 0 0 0
336 1 -5.909109527553464 16.989944386865375 35.18791461980436 0 0 0
356 1 -7.260307370967062 19.533358703551457 35.229114024323295 0 0 0
357 1 -7.370391451752444 17.84437896658728 37.5910166418484 0 0 0
536 1 -2.876391941736549 16.966876168017947 35.14271390005736 0 0 0
556 1 -4.422267444618448 19.605741386487168 35.115707038151385 0 0 0
756 1 -1.408903466891796 19.565322319796138 35.17628965347241 0 0 0
736 1 0.23024858144073257 17.00673392327218 35.17142364953531 0 0 0
557 1 -4.418873352705177 17.754560452281503 37.5509990978408 0 0 0
757 1 -1.5416405283355032 17.826458081383976 37.51741652350837 0 0 0
977 1 0.13167593732705923 20.33718158129532 37.501055809217576 0 0 0
935 1 2.8748738534612217 15.284635023726706 32.67154729585039 0 0 0
955 1 1.5813522076807738 17.965319237368135 32.80985626790344 0 0 0
936 1 2.9937183047064524 17.09593208032571 35.07850468796467 0 0 0
956 1 1.61326007573824 19.671756553421687 35.18632271949197 0 0 0
1156 1 4.398897850115268 19.58004310433217 35.28199725516632 0 0 0
937 1 2.955240813193684 15.302279450320846 37.55570548468697 0 0 0
957 1 1.4875459278944476 17.825771374218583 37.47243259721219 0 0 0
1157 1 4.539306110490442 17.82842222095531 37.622211672632645 0 0 0
1177 1 2.8744356936832895 20.446440359270326 37.52815232325429 0 0 0
1136 1 5.961802310554888 17.058185337287462 35.30649740322205 0 0 0
1336 1 8.963363200292859 16.928355905868145 35.20305721794878 0 0 0
1356 1 7.439469794569333 19.588197406544673 35.11239168851287 0 0 0
1577 1 8.783222633421609 20.50440575449612 37.56144959339326 0 0 0
1755 1 13.289898337127863 17.769954436595953 32.860569428568894 0 0 0
1775 1 11.81964506500976 20.24695456892968 32.8787119807383 0 0 0
1536 1 11.764839788332397 17.05252630941355 35.25911776110587 0 0 0
1556 1 10.443671422577369 19.629665676106775 35.23535475246955 0 0 0
1756 1 13.446806596829667 19.580659417540865 35.19752883610208 0 0 0
1736 1 14.824559743558126 17.134171878724345 35.27184211588995 0 0 0
1557 1 10.271102019016016 17.954561845523642 37.573552744128605 0 0 0
1955 1 16.232427263798435 17.723634386665253 32.74961205935398 0 0 0
175 1 17.63631527481028 20.30408233722182 32.71903653576889 -1 0 0
1975 1 14.843239893202117 20.236852952188002 32.9094794452387 0 0 0
1936 1 17.645432513530608 17.024526222620878 35.29926745829168 0 0 0
1956 1 16.436427116611327 19.63993743237792 35.16657239336628 0 0 0
177 1 17.646208837871562 20.451551352714475 37.49095020538981 -1 0 0
395 1 -10.353413685857863 22.948348905859504 32.876751113369835 0 0 0
195 1 16.157284066220733 22.85285686165109 32.770807573990595 -1 0 0
176 1 -11.757223794384188 22.133144593015693 35.202458061490205 0 0 0
196 1 -13.208587604202929 24.763189262984028 35.09607613442638 0 0 0
396 1 -10.425921183323567 24.63254912173889 35.09475793009689 0 0 0
397 1 -10.296698937759446 22.897562422151616 37.51193198417275 0 0 0
595 1 -7.402211621420422 22.93734024893599 32.836618632635066 0 0 0
376 1 -9.009140415707051 21.986975359759896 35.12320366850942 0 0 0
576 1 -5.972949826197912 21.9231387867086 35.22831239015504 0 0 0
596 1 -7.409496536021975 24.57423617440155 35.08455652490406 0 0 0
377 1 -8.833965048286323 20.293187636819653 37.53053658061356 0 0 0
577 1 -5.878633845515239 20.38630955469872 37.61138041721678 0 0 0
776 1 -2.9710373807434136 22.19214870683509 35.15832249262414 0 0 0
796 1 -4.55662462407721 24.63231402225265 35.22175786052986 0 0 0
996 1 -1.5708623934970634 24.657374110881733 35.08161810152052 0 0 0
976 1 -0.04077194680868857 22.182256274791065 35.20606818647393 0 0 0
777 1 -3.0022545515134498 20.399586529774112 37.49673618574738 0 0 0
997 1 -1.4743444213516443 23.056632968482305 37.46783652065845 0 0 0
1175 1 2.941220631180765 20.522450259102122 32.78454307301162 0 0 0
1195 1 1.5094109823471955 22.939097917699584 32.864719133973765 0 0 0
1176 1 2.986603458816199 22.180600195812893 35.31411241816156 0 0 0
1196 1 1.5215876156093886 24.55910184426289 35.28881195053361 0 0 0
1396 1 4.337867783467337 24.801796299989135 35.06990005145978 0 0 0
1197 1 1.4849305586033765 22.936407535386657 37.60572576291932 0 0 0
1397 1 4.518898400430804 23.021636634642654 37.6066588942561 0 0 0
1375 1 5.827457292900063 20.457128593553982 32.79516802734679 0 0 0
1595 1 7.348899620949687 23.120264217228225 32.763707470169024 0 0 0
1376 1 5.92240293948121 22.318432443510872 35.191175014403186 0 0 0
1576 1 8.632032413551544 22.16338432319577 35.203098907502266 0 0 0
1596 1 7.269497394861266 24.842698336714527 35.1122001647297 0 0 0
1995 1 13.389364899474952 22.89925427036171 32.778306906097114 0 0 0
1776 1 11.79775179571018 22.150929896120893 35.223972923710605 0 0 0
1796 1 10.22361270262574 24.75950912330601 35.26259795169899 0 0 0
1996 1 13.293237141003893 24.69317319716872 35.21532116657478 0 0 0
1976 1 14.792344871230435 22.191640775664652 35.18632270627987 0 0 0
1997 1 13.341252909878868 22.936146044843127 37.631783980491335 0 0 0
197 1 -13.274133910975383 23.141527810329322 37.43668236716108 0 0 0
38 1 -1.5026798783653468 4.146804758133019 39.96296826727608 0 0 0
18 1 0.0034401107711468206 1.540753257420026 39.82757484373511 0 0 0
218 1 2.8485545012082247 1.7886883936926041 39.81850078560902 0 0 0
238 1 1.3638635433806543 4.14873207288453 39.89818253821119 0 0 0
438 1 4.340559375595036 4.064595474329817 39.80270115952584 0 0 0
217 1 -11.846744904332294 25.537712583013572 37.52966122916537 0 -1 0
17 1 29.47146774970041 0.03425960615504646 37.47869844169948 -1 0 0
418 1 5.792208487741967 1.6052904827645709 39.952408287595134 0 0 0
618 1 8.76354670847952 1.6241923057947856 39.82577923883157 0 0 0
637 1 7.26031636619241 2.5541696309059336 37.496207896552875 0 0 0
638 1 7.22853977681216 4.279654326803571 39.91408398204459 0 0 0
857 1 8.68866739497202 4.973756520097161 37.514829108310266 0 0 0
859 1 8.735377040124678 5.102456885690049 42.27626899682282 0 0 0
419 1 5.842406660641119 0.07010186706853028 42.33858169354971 0 0 0
619 1 8.624873685233808 0.05858277615620805 42.28403659926208 0 0 0
818 1 11.832059339687923 1.6520434533849666 39.87314425141352 0 0 0
837 1 10.191597215274136 2.5677605524056317 37.43930308946831 0 0 0
838 1 10.32706973841308 4.174593725582804 39.85334594612037 0 0 0
1037 1 13.23638242566146 2.498793083469483 37.458140198780356 0 0 0
1038 1 13.16026779945542 4.278085220462721 39.781066240954644 0 0 0
1017 1 14.78284573592439 0.017375197361670702 37.66161270677422 0 0 0
839 1 10.309827764797006 2.54135698936672 42.18936834105466 0 0 0
1039 1 13.384800339885624 2.5654336330041185 42.29203159354611 0 0 0
1059 1 11.788196231941892 5.019624555095553 42.267026839618666 0 0 0
1259 1 14.604908148360808 5.209531727967123 42.04587891221405 0 0 0
1018 1 14.7647587132398 1.6841022944128536 39.89265979120704 0 0 0
1218 1 17.616914068021998 1.6284238441868641 39.82077346064585 0 0 0
1238 1 16.240495746041958 4.15178989393266 39.82450688670659 0 0 0
1437 1 18.977914402652686 2.4940981949931 37.37570388126842 0 0 0
1438 1 19.06565092462899 4.104992159008258 39.697079833176176 0 0 0
1239 1 16.36853586784993 2.600680063226351 42.19556145818332 0 0 0
1418 1 20.48624082600847 1.608446716539096 39.815162042807074 0 0 0
1618 1 23.49564584583309 1.588189667593505 39.88799973612605 0 0 0
1637 1 22.154850168245027 2.600591935352016 37.479904494495585 0 0 0
1638 1 22.094469404057243 4.20978006254831 39.835596004700875 0 0 0
1857 1 23.602202290373263 5.06005439071853 37.58236866591197 0 0 0
1617 1 8.745748992248362 25.449432661626894 37.498631071736625 0 -1 0
1859 1 23.577038614627398 5.223040193989389 42.26208639872851 0 0 0
37 1 -1.4035779206979397 2.596389917657498 37.5145425947473 0 0 0
1818 1 26.43006686709336 1.7197161073050542 39.88640428887258 0 0 0
1838 1 25.010328672076206 4.20629528052292 39.97579038433513 0 0 0
57 1 -2.9285999071018805 5.102003419682771 37.53120138655163 0 0 0
39 1 28.00136897529923 2.5227942961539918 42.124670129158815 -1 0 0
59 1 -2.918415328618494 5.089019636171104 42.238900338860645 0 0 0
97 1 -5.862749869046036 10.179866015758163 37.555199803252435 0 0 0
257 1 -0.009462805596168794 5.018183382771768 37.623073294980216 0 0 0
58 1 -2.990315713394394 6.794763594061997 39.99887687549739 0 0 0
78 1 -4.4326923665751785 9.304916982033717 39.94794571608831 0 0 0
277 1 -1.3066171863663147 7.668161381871481 37.681127268331664 0 0 0
278 1 -1.4831541741580614 9.307848589693394 39.81543218249547 0 0 0
499 1 -0.0985212715887013 10.173971473409445 42.30942828486408 0 0 0
457 1 2.7847208858840937 5.087084928061616 37.53709701789664 0 0 0
258 1 0.07204588401550562 6.824152269368814 39.90831774147286 0 0 0
458 1 2.774049405558287 6.7828636561168905 39.85041676442101 0 0 0
477 1 1.5228126001046614 7.619963635285225 37.42565412714565 0 0 0
478 1 1.4564474171565973 9.377364033914866 39.796702837244624 0 0 0
677 1 4.476552940390589 7.64551192561254 37.52971543174837 0 0 0
678 1 4.385773655666007 9.374357140679555 39.788753478587864 0 0 0
697 1 2.987641562540415 10.262272791658562 37.44614422436216 0 0 0
259 1 0.022488084211387118 5.0466179285364365 42.205760302339 0 0 0
658 1 5.875918923402135 6.852487758181195 39.85210400523428 0 0 0
858 1 8.832970048829358 6.8675411311536045 39.83235954614405 0 0 0
877 1 7.42910430004317 7.647768298832288 37.567199599192634 0 0 0
878 1 7.344237293797794 9.441890640343123 39.93851825821315 0 0 0
879 1 7.4017931317888825 7.738509933110246 42.16886543691733 0 0 0
1058 1 11.782203138896135 6.800080592854317 39.88948534799212 0 0 0
1077 1 10.326442534606183 7.554719075688004 37.55025544738204 0 0 0
1078 1 10.377606971689548 9.45533621962141 39.933227094897106 0 0 0
1278 1 13.213845615055352 9.365532736998434 39.89509215445899 0 0 0
1258 1 14.65893572543731 6.76981806684608 39.84279341794215 0 0 0
1458 1 17.690531025999228 6.678571547252297 39.68897158461539 0 0 0
1477 1 16.217874248020223 7.627507513462343 37.48216659409887 0 0 0
1478 1 16.260334081945302 9.305562476221565 39.89815210102651 0 0 0
1677 1 19.21829126955391 7.763265908486279 37.512023546736444 0 0 0
1678 1 19.113403879945288 9.368583265087535 39.87621539214997 0 0 0
1479 1 16.271429713008104 7.603275266412868 42.261553522624965 0 0 0
1679 1 19.07398865193796 7.6993862263394 42.24416047441335 0 0 0
1499 1 14.836381775130427 10.21103354190807 42.16417673590331 0 0 0
1658 1 20.816321289382515 6.775581741062261 39.91489869329072 0 0 0
1858 1 23.649682007693777 6.80469767343647 39.861436471744966 0 0 0
1877 1 22.231981739304935 7.606649152730836 37.47717176904494 0 0 0
1878 1 22.09482746118909 9.376472659700903 39.71933245875563 0 0 0
98 1 -5.868102224369575 11.923540434203646 39.97213389519018 0 0 0
118 1 -7.515079324734407 14.407044493965477 39.928127377162994 0 0 0
99 1 -5.847354095645943 10.285298850441468 42.161975731573676 0 0 0
119 1 -7.310271680264643 12.796875780801496 42.346813031392585 0 0 0
298 1 -3.0591981860561877 11.886403852811215 39.910431106394725 0 0 0
317 1 -4.3717802155656615 12.672475420501117 37.55995318427236 0 0 0
318 1 -4.4489297016790745 14.499373296448235 40.02247909783161 0 0 0
517 1 -1.5721329042342551 12.744511851535583 37.51210246461402 0 0 0
518 1 -1.4701486147174696 14.440375334589783 39.79688848336771 0 0 0
319 1 -4.354072588860681 12.7933915677579 42.270852447610906 0 0 0
519 1 -1.4639896358539166 12.890081622215545 42.23573836606174 0 0 0
539 1 -2.85052087085333 15.342554896881905 42.245016984304456 0 0 0
497 1 0.07430110557223751 10.159712308269375 37.43967152390512 0 0 0
498 1 0.009452092953244905 11.815163582553895 39.7988911559289 0 0 0
698 1 3.161292036572021 12.05974606399594 39.927604190519205 0 0 0
718 1 1.4651903185279587 14.571774521187757 39.99636738140393 0 0 0
917 1 4.522141252007114 12.685946675835323 37.53627783466581 0 0 0
918 1 4.554252804833827 14.554205583922394 39.856837248648006 0 0 0
719 1 1.4902526134848302 12.663768199678804 42.22027975716294 0 0 0
1097 1 8.999505131374558 10.256673154178413 37.49529942584863 0 0 0
898 1 5.867560869808581 12.00439990673927 39.83177588805064 0 0 0
1098 1 8.869590541191219 11.944260909789001 40.00864242060112 0 0 0
1118 1 7.458615306816454 14.537109632728948 39.92770575752206 0 0 0
1099 1 8.895195725737006 10.272187443868585 42.34307456332827 0 0 0
1119 1 7.343473898030129 12.698593897813945 42.30013039989787 0 0 0
1298 1 11.88849211997181 11.984683562322859 39.8858026810622 0 0 0
1317 1 10.440872412273315 12.781257467197898 37.5867756945603 0 0 0
1318 1 10.424150018612862 14.419999063816332 39.974105941014884 0 0 0
1518 1 13.186649371445466 14.483368927788616 39.95014507648217 0 0 0
1498 1 14.674028583497428 11.90887806863013 39.79180928758011 0 0 0
1698 1 17.618778607371084 11.975926026582545 39.98336363006855 0 0 0
1717 1 16.11531324421967 12.9029564644879 37.54591700990272 0 0 0
1718 1 16.21508002835509 14.399688021847801 40.011300271895436 0 0 0
1917 1 19.111456508631335 12.581694355903748 37.58781539743245 0 0 0
1918 1 19.164794569469628 14.33190575117331 39.89619182615404 0 0 0
1937 1 17.70663950725561 15.385832002343266 37.62434813535202 0 0 0
1897 1 20.63240506521913 10.241326062411272 37.38626534179636 0 0 0
1898 1 20.485053927717985 11.827310867526759 39.984333256813116 0 0 0
158 1 -10.414903291757255 19.669485388216998 39.95684039372658 0 0 0
157 1 19.14645473830145 17.83177174446076 37.64076994887159 -1 0 0
337 1 -6.080835361540099 15.161692877048747 37.574577948491594 0 0 0
138 1 -8.954635144531919 16.900061940151687 39.89295524072152 0 0 0
338 1 -5.871568740517657 16.966662611478682 39.9501658539354 0 0 0
358 1 -7.44354574459135 19.577152887983523 39.92360320039592 0 0 0
537 1 -3.0791821043770984 15.167871879521813 37.472566027975205 0 0 0
737 1 -0.08736141797478042 15.484616527980958 37.608012837596576 0 0 0
538 1 -2.867200762743584 16.937452734996526 39.96038712366432 0 0 0
558 1 -4.420382414465381 19.590796706731858 40.00612425121825 0 0 0
758 1 -1.3256068393397455 19.596927381631986 39.77434083837831 0 0 0
759 1 -1.3660007565315897 17.946479147418614 42.331736775522316 0 0 0
779 1 -2.9144927889218857 20.36960671304763 42.26624638487749 0 0 0
738 1 0.11396650803272058 17.05903706402257 39.925431235200946 0 0 0
938 1 3.0783878234942494 17.018352998350856 40.0001399510347 0 0 0
958 1 1.3952319736597076 19.513912793838692 39.824468106608236 0 0 0
1158 1 4.40190916366775 19.625891113949976 39.837811262920056 0 0 0
959 1 1.6382189933352305 17.844558995563787 42.240219943607116 0 0 0
1337 1 8.89395573817487 15.297796976107014 37.63587252203767 0 0 0
1138 1 5.993633090990412 16.98779491254487 39.791790023450716 0 0 0
1338 1 8.854350575747906 17.069961123768053 39.95289487089582 0 0 0
1357 1 7.358959773197896 17.864708957478562 37.46248057897505 0 0 0
1358 1 7.509186793301979 19.5165455566936 39.821969304130334 0 0 0
1139 1 6.009224417647412 15.302299723210272 42.33094099358854 0 0 0
1379 1 5.830844397562813 20.438276623389534 42.217316274713 0 0 0
1579 1 8.826354106323077 20.4632035112866 42.18790775248753 0 0 0
1538 1 11.813833729242123 16.948732272753617 39.97226402406662 0 0 0
1558 1 10.299423025306574 19.579206805486223 39.874614877096576 0 0 0
1757 1 13.387930671337172 17.936610222576213 37.530490807821494 0 0 0
1758 1 13.301585127379115 19.544680073931474 39.7648272876537 0 0 0
1777 1 11.715439984173974 20.511887568444784 37.565300616215865 0 0 0
1738 1 14.738844750409426 17.025323024339116 39.942586107280476 0 0 0
1977 1 14.779145371957991 20.508107718739467 37.44585643968718 0 0 0
1539 1 11.800581719850982 15.324161541533705 42.31129975938701 0 0 0
1938 1 17.69373156350079 17.011483865161672 39.9890582293264 0 0 0
1957 1 16.148429540266775 17.92496439981315 37.59893295577302 0 0 0
1958 1 16.26109537120456 19.539818612359653 39.988071664538055 0 0 0
178 1 -11.750228137938295 22.2575498974145 39.805811893554704 0 0 0
198 1 -13.336200609228065 24.725635709283473 39.79798769658639 0 0 0
398 1 -10.364448197423345 24.688944031782285 39.963420436698925 0 0 0
417 1 -9.066915488021197 25.47014729291972 37.514422243356734 0 -1 0
378 1 -8.83289932590247 22.206654559574808 39.89250811853381 0 0 0
578 1 -5.982836129234377 22.03357191886399 39.92382700424267 0 0 0
597 1 -7.3741656475162145 22.88109206156905 37.50590054623288 0 0 0
598 1 -7.454509149878941 24.641747728098423 39.82490044404844 0 0 0
778 1 -2.9588468395519123 22.079993763633333 39.97356124858443 0 0 0
797 1 -4.4960542688952705 22.941565792364614 37.589555015223155 0 0 0
798 1 -4.438514703549591 24.713862960604715 39.78715139863391 0 0 0
998 1 -1.4448284414882824 24.67026156251903 39.87661443532885 0 0 0
978 1 -0.011262099627437952 22.081821562638936 39.74082737493349 0 0 0
999 1 -1.6431450874239715 22.991884897271134 42.15963706289803 0 0 0
1217 1 2.9713010855299506 25.539734536341953 37.46834038969017 0 -1 0
1178 1 3.0613043973275835 22.03597055627997 39.91655980781643 0 0 0
1198 1 1.5597014319583196 24.65080371051836 39.91939191379865 0 0 0
1398 1 4.429218375360654 24.61426199571246 40.00551609892001 0 0 0
1179 1 2.914735350595348 20.28206022764664 42.36021190350304 0 0 0
1199 1 1.5121693437240638 23.003061461698238 42.2135181460046 0 0 0
1377 1 5.939635531339486 20.432833014766864 37.57967716574859 0 0 0
1417 1 20.66517169428373 0.023909883725288825 37.55291051073732 0 0 0
1378 1 6.0605846858106664 22.1731873093849 40.01645532741779 0 0 0
1578 1 8.970786940567303 22.044496078506647 40.010927928836 0 0 0
1597 1 7.315151189946351 22.963440523785195 37.57252912436772 0 0 0
1598 1 7.347174652464315 24.610862761394642 39.915465707718624 0 0 0
1419 1 20.588996906132152 0.1276205760868446 42.33148115321595 0 0 0
1619 1 8.817261406222746 25.517503401962088 42.30919458499234 0 -1 0
1817 1 11.77462620597005 25.526216839409493 37.60754310306689 0 -1 0
1778 1 11.694828133639097 22.2239983962194 39.79535414394904 0 0 0
1797 1 10.272514800840328 22.896920430054045 37.48019750949399 0 0 0
1798 1 10.37103598739685 24.69417502081307 39.8919139063627 0 0 0
1998 1 13.177391350827701 24.731563739800002 39.870350788863135 0 0 0
1799 1 10.256523412981597 22.969053654365375 42.42100110788711 0 0 0
1978 1 14.755868514660627 22.230482893797365 39.95472087341746 0 0 0
199 1 -13.234619169700022 23.04699480045153 42.25546994009542 0 0 0
40 1 -1.36336152352161 4.202453943764583 44.70729792642632 0 0 0
20 1 -0.010456440482669884 1.6943435009184156 44.48141373298705 0 0 0
1 1 14.549803108562475 25.44904168844227 46.89990253992028 -1 -1 -1
239 1 1.6137308071627308 2.494124568204398 42.29544105156553 0 0 0
439 1 4.569435098903563 2.5686704148666863 42.23547281526817 0 0 0
459 1 2.996698045232915 5.119964690012244 42.23655047064001 0 0 0
220 1 3.047158564991473 1.7029726405844543 44.455180046689094 0 0 0
240 1 1.427343140895824 4.2745423490585 44.42224975022893 0 0 0
440 1 4.371215172081758 4.419047657244079 44.59403634071603 0 0 0
219 1 -11.814125539129105 25.534482652588004 42.265848128072534 0 -1 0
641 1 5.844480712000033 4.957581804397472 -0.14600989453945665 0 0 0
601 1 8.790984324904615 0.005401792762775078 46.863601758871496 0 0 -1
639 1 7.256708367505234 2.6055961022465666 42.30910988162755 0 0 0
659 1 5.771072420671947 5.392497801960867 42.12122758413973 0 0 0
420 1 6.040702375371063 1.7466201319760495 44.642197441445205 0 0 0
620 1 8.788167053569708 1.7089178870028108 44.4897121474136 0 0 0
640 1 7.231752616600576 4.288373373851745 44.5100503571926 0 0 0
821 1 10.390633138637254 2.442099740064095 -0.1060115581003814 0 0 0
1001 1 14.763465009648241 0.1735604949250842 -0.13633761669016675 0 0 0
820 1 11.787210312358892 1.7511752569893217 44.517101033025014 0 0 0
840 1 10.247700812898103 4.325942929386275 44.53621472677074 0 0 0
1040 1 13.302399146317724 4.292753931493987 44.48574343399662 0 0 0
819 1 -2.980235354879625 25.541721980545425 42.18820131872701 0 -1 0
1441 1 17.793710473402378 5.1926626063831245 -0.07011080068334428 0 0 0
1201 1 17.69769646342951 0.11923059944654903 46.92699673690694 0 0 -1
1020 1 14.715773277689735 1.6974320339202007 44.53470061003421 0 0 0
1439 1 19.22487611424662 2.6122023854718877 42.14427207793166 0 0 0
1459 1 17.74493226024896 5.186955776617147 42.13466118899444 0 0 0
1220 1 17.862124890408325 1.7698425441369126 44.406558153676784 0 0 0
1240 1 16.23107354649133 4.285243235425397 44.50238828074458 0 0 0
1440 1 19.22832200878363 4.207064050974614 44.45055900961053 0 0 0
1219 1 2.9594235506328768 25.459660397554174 42.26790862807532 0 -1 0
1621 1 22.174734214098564 2.6779574735945424 -0.1165992194253051 0 0 0
1639 1 22.069631505832042 2.486878101588273 42.07089615636929 0 0 0
1659 1 20.647042236805916 5.226708100883618 42.19414031684079 0 0 0
1420 1 20.611795207657707 1.69743268483592 44.649996656221305 0 0 0
1620 1 23.598662473704863 1.6667126001588282 44.680014949525884 0 0 0
1640 1 22.101088403344534 4.188596604094158 44.499343411190154 0 0 0
1821 1 25.023811601414593 2.5568572766579227 -0.12257776693034067 0 0 0
41 1 -2.826143397329108 5.049288269442607 -0.028420619677472975 0 0 0
1839 1 25.159767366465957 2.530514222658169 42.373335318280425 0 0 0
1820 1 26.49926303594551 1.6128542689694743 44.695883721658205 0 0 0
1840 1 25.12755411260597 4.203720933761369 44.66991984440965 0 0 0
241 1 0.04189398930354349 5.114349204154393 -0.05362328978664925 0 0 0
261 1 -1.410196644170119 7.741233255701833 46.915170476917964 0 0 -1
61 1 -4.452386665472262 7.7159432429468815 -0.012260240109885717 0 0 0
279 1 -1.4555140668654285 7.627511813532999 42.21030588013038 0 0 0
60 1 -2.960167010924039 6.539559745502244 44.64043344499548 0 0 0
80 1 -4.4633882242390674 9.304618542672207 44.639943542197884 0 0 0
280 1 -1.4862200259563596 9.288373102136562 44.70533475939801 0 0 0
260 1 -0.045250138198891315 6.745916864102393 44.474262048543025 0 0 0
441 1 2.931839780237435 5.0241847895572 46.92348894343476 0 0 -1
461 1 1.5515172261507693 7.762093661861117 46.93164019670907 0 0 -1
661 1 4.467211677381518 7.593948059024903 46.88070359766786 0 0 -1
479 1 1.4459443756893162 7.727591498366825 42.16869173018276 0 0 0
679 1 4.365211492979258 7.755236693623421 42.1643314254066 0 0 0
460 1 2.8625572658122613 6.954924219123046 44.54805107569882 0 0 0
480 1 1.4690149478852068 9.40144714535181 44.53378155407401 0 0 0
680 1 4.503148392848528 9.429302030603413 44.49761819849326 0 0 0
1081 1 9.007640274292916 10.21363875037499 -0.020407712601256428 0 0 0
899 1 5.943196415986429 10.165375511082674 42.17715057059739 0 0 0
660 1 5.70699114229513 6.737547772428806 44.63599721346661 0 0 0
860 1 8.665897281344744 7.010289847112253 44.47390993544646 0 0 0
880 1 7.335762676961945 9.47858543253237 44.60917928237778 0 0 0
1061 1 10.239683914736027 7.641477033452191 46.848139324718304 0 0 -1
1261 1 13.221658116272096 7.660180834045428 46.8371193280709 0 0 -1
1281 1 11.999997083700531 10.15767111378601 46.91113185401984 0 0 -1
1079 1 10.386052900153814 7.640421169073148 42.19345738812447 0 0 0
1279 1 13.343617753131888 7.63943371215541 42.1051451777377 0 0 0
1060 1 11.81633941684631 6.71615920456787 44.5183937789853 0 0 0
1080 1 10.281075959221965 9.281654267792707 44.77342497975759 0 0 0
1280 1 13.394758407663733 9.34055187771242 44.51780723713043 0 0 0
1241 1 14.669254525594686 5.190591639537168 -0.07759354535794578 0 0 0
1681 1 17.5892293359478 10.303825275763716 46.872987935068565 0 0 -1
1260 1 14.84942670630225 6.785170058956373 44.61313063660184 0 0 0
1699 1 17.710935751698756 10.324030206774946 42.32843007694402 0 0 0
1460 1 17.724159988731017 6.765073042362078 44.68270852530735 0 0 0
1480 1 16.132443933792175 9.34527537284976 44.56466825325924 0 0 0
1680 1 19.152681441922716 9.317507000636779 44.56624916074898 0 0 0
1861 1 22.064585496772033 7.6851863295342175 -0.10967677771076659 0 0 0
1879 1 22.06955483278599 7.691252110462742 42.2085386431381 0 0 0
1660 1 20.735385282285463 6.794223296272032 44.536141769725276 0 0 0
1860 1 23.642613669194652 6.660407164263566 44.58391563886924 0 0 0
1880 1 22.07535604123629 9.29909810687817 44.65585005440704 0 0 0
79 1 24.992295554277327 7.70154430256004 42.274766764220274 -1 0 0
81 1 23.51015176961019 10.272469063153597 -0.04958445032004631 -1 0 0
101 1 -7.377995841017695 12.841143106392867 46.79224605658027 0 0 -1
100 1 -5.824584331352571 11.725049917982954 44.657488183226675 0 0 0
120 1 -7.40878599966994 14.48990988678581 44.576830839272105 0 0 0
139 1 -8.792074748569853 15.320720422723205 42.21066287985197 0 0 0
481 1 0.06823302439826094 10.214930654186091 46.92771062624021 0 0 -1
299 1 -2.933002699492462 10.205919953577123 42.295755744619555 0 0 0
300 1 -2.8818858019971985 11.878781558204956 44.62740285622897 0 0 0
320 1 -4.591136225183464 14.384768449299456 44.56201285011258 0 0 0
520 1 -1.545898933757972 14.437231989438496 44.73192994314624 0 0 0
500 1 0.011273747049392583 11.994622984209544 44.70559694028262 0 0 0
699 1 2.9829547204319513 10.301330239851275 42.150552632553385 0 0 0
739 1 -0.014562092490490262 15.462126505906735 42.25036104277855 0 0 0
919 1 4.373824836396586 12.862366785232078 42.127401890285526 0 0 0
939 1 3.005075999676222 15.18152347180519 42.32534216304934 0 0 0
700 1 2.961328818681919 11.947701056855381 44.449112378833576 0 0 0
720 1 1.5054430817683602 14.459778549163252 44.49681043307305 0 0 0
920 1 4.504985940860169 14.372081254623586 44.65948636546953 0 0 0
881 1 5.990726159914885 10.159296265455822 -0.048279487962344214 0 0 0
900 1 5.994345161301617 11.865598995635345 44.52512787880417 0 0 0
1100 1 9.03856775124239 11.989289986437187 44.61321405571243 0 0 0
1120 1 7.365126130454853 14.413840634633695 44.6703371287617 0 0 0
1299 1 11.816792615115148 10.307519682992522 42.3696178358792 0 0 0
1319 1 10.349897892767906 12.729428843290652 42.27280135436445 0 0 0
1519 1 13.365576844121875 12.825023803802532 42.1926382014379 0 0 0
1300 1 11.88072423775516 11.905375740554208 44.75425310796729 0 0 0
1320 1 10.303134736065838 14.407991562229851 44.57840727654707 0 0 0
1520 1 13.341638749671745 14.509733856487758 44.65486120655281 0 0 0
1739 1 14.717388989245784 15.339793481016862 42.23837016803107 0 0 0
1481 1 14.772896555818116 10.111307699023826 -0.07347903871404667 0 0 0
1701 1 16.230777100891125 12.789721453434526 46.89542046890436 0 0 -1
1901 1 19.105705506622378 12.8429428990054 46.895335223931355 0 0 -1
1719 1 16.2334588446276 12.703333760030924 42.41268504607734 0 0 0
1919 1 19.227763686568395 12.798830120697668 42.31519284549081 0 0 0
1500 1 14.771702763070941 11.901004408540082 44.625563302171145 0 0 0
1700 1 17.61946623809971 12.011356249553476 44.621680158809184 0 0 0
1720 1 16.235003098688537 14.59125699471684 44.6253824481483 0 0 0
1920 1 19.066295858167685 14.594939178446351 44.60899529994168 0 0 0
1899 1 20.669912117190876 10.255459002507505 42.233734604382676 0 0 0
1900 1 20.62944410169407 11.986391085106224 44.7285634727599 0 0 0
160 1 -10.38002429947904 19.65250077661961 44.75191073118194 0 0 0
159 1 -10.297299929505769 17.909915516901464 42.317473679376334 0 0 0
121 1 -8.831601276715192 15.34401254348436 46.89346415556224 0 0 -1
339 1 -5.830895420002549 15.312071804410955 42.314388517548025 0 0 0
359 1 -7.290794205965336 17.91235330411041 42.26818449655839 0 0 0
379 1 -8.835339943114882 20.41663935682452 42.32756407655235 0 0 0
579 1 -5.936423196379509 20.40236857467829 42.32942302947275 0 0 0
140 1 -8.896756218948958 17.02813034326732 44.5639285318575 0 0 0
340 1 -5.979661697980193 17.08085081432879 44.647664214336544 0 0 0
360 1 -7.402780093380807 19.417514532827376 44.57546576374553 0 0 0
541 1 -4.412361555819024 18.003068085421653 -0.08962805146254768 0 0 0
961 1 0.02043642578862226 20.54667577733006 -0.11774761515622412 0 0 0
559 1 -4.502724170189766 17.8622984304415 42.20773778219355 0 0 0
540 1 -3.067368053607885 16.962498773595755 44.55699063536788 0 0 0
560 1 -4.294299067339887 19.672267915236056 44.510309433304826 0 0 0
760 1 -1.5996769504118995 19.59296725845254 44.67266379146963 0 0 0
979 1 0.02721875983416785 20.389001025255034 42.25909987462694 0 0 0
740 1 0.01977980797183269 17.079202428467248 44.724411938587195 0 0 0
1159 1 4.440914047836553 17.833048342166713 42.142741600902625 0 0 0
940 1 2.9617550101846493 17.19605272277422 44.604404652061305 0 0 0
960 1 1.472516187985906 19.723684337622302 44.72446297303199 0 0 0
1160 1 4.475998531427478 19.532821790245322 44.56736205156909 0 0 0
1361 1 5.788592713788659 20.469473098797685 46.82361576097284 0 0 -1
1561 1 8.607656906171107 20.399407079940566 -0.11311399670831121 0 0 0
1339 1 8.77427574646101 15.353273596379248 42.22244510059949 0 0 0
1359 1 7.457716765590251 18.003641579449067 42.246752651315944 0 0 0
1140 1 6.002901669188238 17.01908169472763 44.50500231749676 0 0 0
1340 1 8.853916657427128 16.98496241924944 44.70213016170267 0 0 0
1360 1 7.356873202203453 19.615067653095984 44.62116232412093 0 0 0
1541 1 10.321827368886916 17.883249535759767 0.07721828440025863 0 0 0
1559 1 10.368530709737346 17.830480507696173 42.27273871714111 0 0 0
1759 1 13.334076847691621 17.884098912805683 42.340699457606036 0 0 0
1540 1 11.866770544984162 17.030627398727752 44.57172253216403 0 0 0
1560 1 10.288389882700473 19.44338987045166 44.66637794703567 0 0 0
1760 1 13.252330228160183 19.642497284704305 44.73041139519549 0 0 0
1939 1 17.802964846461762 15.343542062062927 42.257319150734816 0 0 0
1959 1 16.326486250848404 17.802587987057294 42.37211956900484 0 0 0
1740 1 14.759574375326201 17.007632811989126 44.624767824621685 0 0 0
1940 1 17.7257726699279 17.071697169669413 44.706703017275515 0 0 0
1960 1 16.272850906348822 19.62486672579565 44.50213073912494 0 0 0
381 1 -10.2808731118262 23.068103404399494 -0.11052895802932447 0 0 0
179 1 17.676473969484128 20.443770142784253 42.29310094930831 -1 0 0
399 1 -10.371937167737208 22.959103090351697 42.253214635236446 0 0 0
180 1 -11.818059211752889 22.079814351335905 44.71375534292358 0 0 0
200 1 -13.29131537125296 24.763743261154367 44.59717536518889 0 0 0
400 1 -10.298801066352404 24.759277110570657 44.57980781882162 0 0 0
19 1 29.460546257074412 0.06824260307020376 42.15718921831528 -1 0 0
561 1 -5.870486104180649 20.605326669335 46.794614484214364 0 0 -1
401 1 5.9639559629214585 0.0489314922273903 46.93554046637759 0 0 -1
581 1 -7.430910924548759 23.022504227312304 -0.07083024871228746 0 0 0
599 1 -7.362041561480464 22.965611045877857 42.21566845723805 0 0 0
380 1 -8.960936673423925 22.21772197622456 44.58134289164302 0 0 0
580 1 -5.893078292409849 22.179354056352338 44.47964726957423 0 0 0
600 1 -7.269225245215663 24.67550391119852 44.666070813562456 0 0 0
799 1 -4.484747594562433 23.016201731975507 42.19377602116877 0 0 0
780 1 -2.9587842863293585 22.246099034145644 44.49818505890033 0 0 0
800 1 -4.349901907879025 24.75948215510386 44.532186626842616 0 0 0
1000 1 -1.3456724163233447 24.761481887169445 44.55144511457456 0 0 0
980 1 -0.10254645686315253 22.203152572121596 44.53897811698022 0 0 0
1381 1 4.406383739611874 23.105526547603006 -0.05406594501135023 0 0 0
1019 1 -0.01313513337996911 25.484465572533807 42.17529918317672 0 -1 0
1399 1 4.322902280678773 22.94540720248535 42.265601724208494 0 0 0
1180 1 2.936738612321029 22.140133359083883 44.57848649824119 0 0 0
1200 1 1.4705862389283069 24.649097446454007 44.63688443354637 0 0 0
1400 1 4.416669304495115 24.780003587015273 44.66961286963786 0 0 0
1401 1 20.688382666015848 0.11714451624562738 46.91180537453384 0 0 -1
1601 1 23.578570883999937 0.09693507037100658 0.03956341475595607 0 0 0
1581 1 7.448128012299662 22.977822449252578 -0.10998777022591663 0 0 0
1599 1 7.286046807753929 23.117872569314784 42.25251492310211 0 0 0
1380 1 5.870840036210086 22.183555424890947 44.617721156903556 0 0 0
1580 1 8.836939306106945 22.09873801364894 44.53024779329078 0 0 0
1600 1 7.436093080343013 24.775362918770888 44.70005689892004 0 0 0
1761 1 11.732127227294255 20.462377128437637 46.90616024532237 0 0 -1
1779 1 11.895746131945828 20.371015867241603 42.21104898493283 0 0 0
1819 1 26.326146618376136 0.028642879491024426 42.231357656952596 0 0 0
1999 1 13.14973843551794 23.060246662889696 42.170462902273314 0 0 0
1780 1 11.734639168950721 22.068937492844682 44.56134161179283 0 0 0
1800 1 10.401933730193706 24.5869908505343 44.66750548576441 0 0 0
2000 1 13.25395311427099 24.616211021545325 44.5862964193886 0 0 0
1980 1 14.710028422145388 22.20204460273908 44.59868603848646 0 0 0
181 1 -13.199137733584005 22.892867822568363 -0.1034892265781131 0 0 0
1979 1 14.868613106140867 20.542296865385048 42.36543976422139 0 0 0

Velocities

22 1.827278253004515 -0.8169724710493149 -0.05339150237299966
21 -1.6384702466364096 0.2684952933673041 -3.730023949139493
2 0.18566417955099904 -0.7936233058201809 6.339794187385748
202 -1.2589206821408003 -0.06900095788025593 3.0929810384464056
221 -0.9753023261322353 1.1597433091907663 2.0060996252365837
222 0.5419670653018771 0.5001667337721427 -0.8518086341782286
421 1.259939082841961 -0.9787590530446058 -0.7950519565738735
422 -4.640657582370719 0.7591269709967289 -0.27889100840396663
201 -4.69731234165763 2.802963833762094 -7.258446825998458
223 4.559627940019003 -1.8384388859219247 0.8568304645285267
423 1.6864335982269014 5.794143225055737 1.3514182209826948
443 -3.376897166885318 0.9874550147169566 3.2715550922037666
402 -1.9718394461103617 -0.9932054745434951 0.2727404051731107
602 0.4333882691803463 1.3462365916243453 -2.7924207399268695
621 -2.269674108506456 1.727866949925089 -3.713057470230062
622 -0.7662885803256947 0.12165353844165662 0.11707377254316179
623 1.1493651401699774 -3.963966001676484 1.2629416009860919
643 -0.8141968240584541 4.160483802471665 0.598879005170169
802 0.7992132264640263 -5.905892062766445 0.8818566328785944
822 2.3512292027363215 -2.6131931372749357 -3.380549524969312
1021 1.8667881603631447 -1.0126707695615973 -2.7138589047530886
1022 -3.5742348378121647 -1.8066454093780306 -0.7731160982079945
801 1.1722479747809285 -1.3612243219802007 -0.4368049430170071
1023 2.8353990156525435 -1.0545632378877166 1.3297537746010588
1043 -4.317677545299139 -0.32436331105993166 0.11142518492222674
803 1.263138638148293 2.803888875149174 -1.0443296140211757
1002 0.047344790046049724 1.4355239248029477 2.6701128105768914
1202 6.5239400882914955 0.08809363510297034 0.0997082625669506
1221 -1.8981080584859233 1.8311144802774328 -1.7286155538763563
1222 -4.8589930148548 3.042700577624717 -3.993730017843514
1421 2.2561317908965615 4.192756607576407 -2.6057433969592783
1422 2.7556855711147725 -1.4944879860575269 -0.7663268705256765
1003 2.067435828859453 -4.4502314300857515 -0.7448846544275164
1402 1.9353130637031977 -1.0593715376790178 -2.674643355081833
1602 1.8724204545904433 3.60048662560449 -0.8338451018732949
1622 1.4404595362705572 -1.5557504455304396 -3.075508319156182
1603 -1.5857107568656728 0.03368022902126447 -3.1759315977494045
1802 1.0649994170125077 0.9365245187448713 -2.1759554979500346
1822 -0.7612306190569295 -2.2780283321433323 -1.5281632740258744
1801 0.6897134923848006 -1.6598589086269793 -4.785709176818255
43 -0.8161505861532636 2.4912902660882748 0.976066829968292
1803 -2.567846690544719 -4.158083349016358 1.538602508200391
42 4.325729956212318 -1.1992196688665968 1.2575645566298566
62 0.8695882514800489 1.9928691620140966 -0.6557831467967299
262 3.326518394540968 -3.4319643834541993 3.762699526364196
242 0.7854999889799559 -2.8008122725295514 -0.0056551169588566754
263 -0.3732341873262918 1.5078778316258015 -4.43473410571666
63 0.5392737745415415 1.5896827687431168 -2.9027810854324345
442 -0.6698625960458264 -0.26657665228823985 0.11936395934117618
462 -0.25222352236206924 -0.41809158227674764 -0.8756286065149298
662 0.38231705544169386 0.5124874724968524 1.1605159870161743
683 2.0550650464608653 2.8697091616237573 -3.116775709142821
841 1.0593360541685286 6.252981946897543 -0.5729312923048142
642 2.3342734717910893 0.19809536524013915 1.5943575735409887
842 -1.4519990206189246 0.6456213819768065 1.64641218019109
861 0.006034255674710319 -1.1508058427160721 2.732440691118956
862 -3.153904489069266 1.7987338377569957 1.469084792329093
863 -0.7633480705696186 0.45242840852439975 -1.2955379095557913
883 -1.3916524635858676 -2.0467634213414563 2.869244401506064
1041 -1.5807024124096416 1.3416268467410826 -0.08110831468497656
1042 3.333588601957812 2.628172649839911 1.3641161716636694
1062 -1.7530282391998286 2.1498630108618384 -1.8143283077021015
1262 -0.02270390054244936 0.2381486969781666 -0.755487622057906
1242 -3.278503442437543 2.8318182774467693 0.17891084543345545
1442 -0.7348096352548934 -0.18840630941087025 -0.46546724000230666
1461 -0.6935603193263308 -4.081266353228794 1.8967360205206238
1462 1.518738913533952 0.33843325967452215 4.071973651930422
1661 0.6793215641867365 -1.5127074978199588 -0.20228484400500774
1662 1.590420348161955 1.163960964950922 -2.300125113721204
1463 -0.36681037839691377 2.255219970329325 2.187281784555303
1663 1.6750558182635842 0.7821223220087169 -0.39873450555550743
1641 1.1012489243351282 -1.100027940066158 -1.7964353618935947
1841 -2.597675254012053 -0.9124878987678352 1.9877522337439735
1642 -1.2518524932700805 0.2014729860173596 -4.005317366915961
1842 -0.6696116128986198 -2.2095300856747495 -2.581702717060984
1862 -0.925091433201526 0.005387180603329463 -3.0018627354537997
1843 -1.181430696868459 3.0608368431822432 -1.4064605034478133
1863 -0.12007573270839557 -2.7568709392765234 -0.8258394818755552
82 3.475729393783541 0.887425545022237 -1.6615387869809197
102 3.642422397942251 -0.6445732797445872 -0.8218602526082072
103 -3.587741373288798 4.781901870238193 1.107522628781621
281 -1.7951060221860864 -2.7183522261541078 -2.001715334286372
282 -0.18450194286130425 -0.6814052950190986 -0.3668886894631043
301 -1.186654349681874 -4.522491421484328 -0.7651511105037866
302 -1.894375245224922 1.2656024157531274 -1.4314389583524427
501 3.180884432626964 0.6643390446700285 -2.350375255971517
502 2.487362262375869 1.1970075964332338 -2.806874152990172
503 -2.7583200731508337 -0.2202840361465484 4.496197039787182
681 1.4870779851021438 -3.1689681331154214 3.217944563449389
482 -2.6227404098010507 1.1565966508175438 -0.33418577133884336
682 2.1909129123539253 -0.013523456216242818 -2.3694942915756756
701 -1.5921112973301532 1.1098730601822364 -2.0123837936450335
702 0.9287046769572451 -1.2476311959585478 -2.4345815249943437
901 0.43817325086315395 0.54966924225832 1.4192788543230106
902 0.7856114254655793 0.20609254385784573 2.2462027532768376
703 -2.770555605902056 1.4908047430454654 -2.2068401968987
903 0.38017002271385175 -0.46303263715659115 -2.598995056404288
882 -0.5892056098229226 0.4987781058476353 -2.874888072452407
1082 -2.891571399505466 -1.9993435487728894 -1.422921551735365
1101 0.22300018086685275 3.5203247082489257 -0.5636588489656081
1102 0.3023412505219504 -1.1293560635820667 2.508743270884744
1121 -0.4067265264293582 -0.04074252206501934 4.4592914303872275
1282 0.48081452228832483 3.7211080554368356 -1.3026658704779797
1301 2.0200117531011528 0.5259300199864753 0.5577997107065302
1302 -0.5531002078289841 6.519101485521139 1.2999981763900228
1501 0.863464496894847 2.8343639865625088 2.2422700277127396
1502 5.6003239200594495 -0.4062704289575143 3.0811315292769113
1521 4.341713495333228 2.132391268098885 1.642896441311019
1503 1.1662343409961764 -2.280804757199375 0.3511959225084707
1523 0.3043151218428343 -1.481837395214967 1.597628203315892
1482 -2.253508949116576 -0.9148633500381249 3.013462372678817
1682 -1.2622004855702857 -3.2874358537459325 -0.35298740249824107
1702 -0.5877291463781705 -3.105695218297809 -0.5665617107442013
1902 -3.421025529272733 -2.5763902036433133 -3.9287101038066874
1683 -3.2201996853271004 -0.6412219464291494 -1.7319075685167427
1703 2.577755578221109 -2.4431317717790906 -1.3799028697823663
1881 -0.3581056880485563 -1.1496243378648368 2.5341003414586334
1882 -1.9108499988391654 4.196414437886184 -2.9612680785765093
1883 0.3639311059180163 -3.073921366474953 -5.9150070550332865
142 -0.9493051922679536 3.1877622022376073 3.7521068038587106
141 1.0244658891998593 -2.0747033259998284 -0.35377634276087006
321 3.857774735341799 -1.2376519471078768 0.8190127838029241
122 2.4360699680660676 4.961067515025283 1.7877987680639005
322 0.28995782579525753 3.6349742060830543 1.5756379025745535
341 -2.153411103822833 1.8497571640456336 -6.505064368555644
342 2.129960074746108 -0.49060835227580285 -3.400429684980454
123 1.780102325691003 -2.0208288219834682 0.8457304494414714
343 2.123708018344012 2.550688364887241 -4.71146568287585
521 0.47930032003934386 -2.8174017379935115 1.1794774488879332
721 -0.3231929198736929 4.386586958640491 3.708579228982793
522 1.5735726917709794 -0.8508248896387502 3.66999835875915
542 2.5049191000988764 -1.0706323103290967 -0.7890388410194131
741 0.07919594944422037 -0.8905158178799727 -5.25391641771128
742 -1.7544786808816628 1.0699821794996462 -4.4435032112020325
722 -5.266731046188679 0.579167378146527 1.5935002417488568
921 -0.140136076687557 2.824757249953779 -0.8188009601640819
922 0.9173374634344781 0.6623667430668205 -3.98803993431968
941 1.78808717171295 -1.7674703342937175 -4.147052254390144
942 1.3381001518958466 -2.6443342786177286 -1.4500665973757167
1141 -2.646799864214382 -1.8975223237841357 -0.5420199896651156
1142 -2.835889853959668 -3.3715069408554728 -0.48172292215455215
923 -1.9240435492734704 -0.12928065001279831 -1.727519376656402
943 1.9245243182078997 -0.2438849346699234 2.4077987981119926
1143 -2.5491862345678253 1.562187409044316 1.1084754042340168
1321 -2.994453025891913 0.7324609125299705 -0.37233025589906216
1122 0.8876044963113243 -1.9581895359583037 2.045217849114155
1322 2.615845442188197 -1.1894381913561454 -3.5225853300788836
1341 3.00465267448821 1.7115937611477263 4.480187560843121
1342 0.3883727076505235 -0.017597319818165397 -1.1295313166924745
1343 0.6666456937868875 2.3624790458640628 -1.6499682106791465
1563 -2.5682729381156935 0.6053294217541327 -1.101469684630201
1522 0.6303327823613247 -2.3926695973333962 0.3810856071796574
1542 0.8105363279774532 -0.11264634658907892 4.84309895217913
1741 -2.7741079581077064 -0.6535455863988467 0.3549323200352111
1742 -2.1819704560810433 -0.4554221920327952 2.5917793878244413
1543 -1.6421631841319309 -1.2686676660202523 -1.7722704410928947
1743 -2.1550336710929856 -1.8458407931428842 -0.8149952848097494
1721 -0.042658867856201564 -2.004496758090309 1.2912296913630126
1921 3.1661632815057756 0.9816239682390262 -2.6274050265755675
1722 0.8804495414757271 0.8591339175247206 -0.7865107606108092
1922 2.803088952511841 0.7385361920593734 -1.7346766413965982
1941 1.3651891054602596 2.1983821881621526 -2.9334017418120104
1942 0.6871308771709684 1.0336449515326704 -3.499528589632061
1923 -2.2241773251265573 4.203302523202289 4.821521882375383
143 1.5974154772532894 1.5501823160671262 0.32341315682906613
161 -1.327920460406862 0.23379135793411102 -1.0075480955914196
162 3.7810396889831788 -0.9902372515638401 2.3575934288711
182 3.9381879802336774 1.7942220954896384 -2.2599207665973604
382 -4.850234732078537 -0.7609115654543651 1.9737964614342605
163 1.070038263394227 3.3600838814181127 -1.3292195421254147
383 0.8488773641245979 -1.3338487890293462 -1.795396082818632
361 -1.0854631571444846 1.1934854257002807 -1.5177764340955129
362 1.2587378887997356 0.06449492346082823 5.565719955152962
562 -0.21967279520796082 -3.0221705412411 1.661613133234982
582 -3.3502982663752854 1.6193527251189388 -2.2545300517509306
761 2.6678787936574704 -2.8473269043969536 0.7029509779427826
762 -1.0237349991577234 -1.6147848173504495 -0.3674778279923722
781 0.06174160866800952 -2.343102583451225 -0.9150203037691973
782 0.869562419755394 1.1823015487870092 0.9178043067167727
981 1.3965522840939382 5.331112930151837 -4.1545657020040325
982 1.325872301368379 1.4879443585981407 -0.5866574851526034
962 -4.035360481691403 1.573387535977474 -1.2288343650442461
783 0.9766677396472768 0.8260340501206679 -0.3585021245709267
983 -0.3549430719888462 1.3609975738688702 -0.20336422809513627
1161 -1.0721599580705763 -0.7661590268347952 1.4701473026815455
1162 -0.3072012562150218 -0.5643296041242151 -0.7881634189175587
1181 -1.1945901149577276 1.4742199712964146 0.32345155480826254
1182 0.5788214023524293 0.5282787836055561 -1.432578592069461
1382 -0.3277057583763645 1.6175615165510573 -1.546150016997926
1183 0.8438262594168271 4.1041405841143535 -5.7189981262206775
1383 -0.6467757417866068 0.7391125181370355 -0.49807057442445185
1362 -1.4752622565153275 2.815057748155492 2.4480670604307404
1562 1.9414415948154882 -2.3297875860156068 0.6387257006334461
1582 0.1866498969969031 2.554585577066369 -5.423383303407675
1363 -0.6795376064019027 -3.4608399144375506 -0.517267746090595
1583 0.07532618455685955 0.9917498682388776 -0.6643836748400014
1961 1.2298691959926915 3.980120681939513 1.7938923768048356
1762 7.196394004353728 0.024621517860521698 1.1347275070966112
1781 3.0589566890259907 -4.4828298058108995 0.658711338494179
1782 0.9111852439452306 -3.5605645470137506 -0.4342238959701851
1981 0.377693469708425 1.1667561024471458 -2.296780047187185
1982 -0.44523529539387086 1.9272948044935334 3.4472344054066
1962 3.4466285530516885 -1.636889493500869 3.30246462533443
1763 2.132850105157943 -2.1345246537966567 -1.8686687312774977
1783 0.7462897909478269 -0.2356302544534406 1.0106165614572986
1963 1.480259745986992 -5.162993542814634 3.0797876200391174
183 0.23722003403154435 -0.7053512797493028 -1.6054358716297927
24 3.037490326677128 -3.902793407877607 -3.351086673576256
3 -0.39249709048264714 -2.8493690394763034 0.3484865088913918
245 -0.5114919095401209 1.105233686069909 -1.3985823407086941
4 -2.605903264362964 1.7606780538999187 -1.332764257464507
204 2.5238076536914145 0.1329125177507662 -1.8653458037682842
224 1.3423409582527883 -2.157366649417098 -0.42444913592293126
424 -0.5045577476052654 -0.1228109264931252 -0.8065757991743681
225 -0.42573186586271683 -0.4865753216050234 4.054570432384158
425 -0.3829594132306198 -1.5628595650104455 0.12686177817267275
404 -1.0817612882129806 -0.6003667058392564 -2.917728101052999
604 -0.9412071939526986 -0.8138620458537829 2.9975753934151967
624 1.950609549325043 -1.4596920945728982 4.817040859789679
843 -2.4069645925190746 -1.5239905347120135 -1.5628301544247782
625 -0.8845808667457343 2.2096943990651168 1.300709080386099
645 -2.5309432184254157 -0.12735164186707457 0.030590701266123455
845 -3.0124854463808672 -2.0695864981391976 -2.124866919683481
804 -1.3553813516618438 2.708883122787219 4.821219921921155
823 2.9058005281427883 0.5750360962228224 2.6454664533034014
824 4.582765927390389 -2.731200131715953 2.7810368712364073
1024 -2.1555321128764424 -0.075786581034111 1.9976667851635177
825 1.6918304483850966 -1.9586466882962095 1.2432242182461146
1004 -3.276252130417314 -3.486998023750953 -4.50076940273467
1204 0.2559104149678071 1.4978550453631592 0.9788619715842087
1223 4.2228017085976886 -0.22770116814608063 -0.43627366080581154
1224 1.0191875187914095 3.093869638915728 -3.320980207151101
1423 -1.9447261033576884 2.959820656770584 5.787735104010946
1424 0.3365719334284531 3.4883049886480357 0.720343894503993
1443 1.3646908282272885 1.1176138317848874 2.6764273996157506
1425 -2.467648209922321 -1.2215824321828277 3.693806960486872
1404 -0.09630791404752491 2.7742415187242133 0.007992177576293683
1604 -4.629677176802564 2.6388809118234895 -0.11354864961529869
1623 1.5366182942563504 0.5119370177557964 -2.5657588574403682
1624 -1.853317919604428 1.3469188101426557 4.480774184865817
1643 -2.241868584452176 0.9117039166721455 -0.6660809105259616
23 -1.1231088386789987 1.0252988602679807 1.7870563039642293
1804 3.660519421773854 1.4504074252132049 -2.507834816028607
1823 0.6646669575259024 3.6968116131216537 -3.242110754978946
1824 2.345357759208169 3.1394705512636736 0.8247470670089906
85 1.7519694277288205 -1.0404713845238662 0.5565288725492094
44 -0.24418708494945435 3.836917263917302 1.7315777604478184
64 -4.86692463097488 -1.0197666720930831 0.3166210893600548
264 2.488523438262931 -2.2655448999993295 1.489604255258228
244 2.1879728932672515 3.0593687292094707 -0.7404751816095332
483 -4.48094178250046 -5.861357278910255 3.7718162013129946
45 -2.02536513255943 6.3285205992271525 2.1891580438904077
265 0.9879915693815903 -0.5450031149692176 0.11046109489776333
243 3.7046635841148063 4.649639134990341 1.4000086244301386
444 0.9031270742426403 -0.0013272078354955154 0.3775669638883586
463 1.1529062208711638 1.8186515520011126 2.1347640901274043
464 0.23009390550667452 1.391514642555902 1.0703907908059695
663 -2.567256284644037 -4.150675623276666 -0.7237638855569376
664 -0.5593794242724875 -1.554817192806385 -2.9271116536225334
445 2.003463526771991 1.8211551031733184 -0.8684093667973615
665 0.5363382724307011 -1.190883821729191 3.0484614018080083
685 3.5039569393689804 -5.556764394203585 0.37492726037978785
644 -0.39367494366075473 3.7928506025181528 1.1037546532981999
844 1.9229527316846207 0.09439006266766849 -5.458187260015205
864 1.3747438752474894 -1.9540465865062269 1.6342292913449932
1083 -0.10671621179100237 -2.4233884563962147 -0.8830139999917632
865 1.2766739721838003 3.7043544204920207 -0.5969762736814344
1085 -1.8171835067953432 1.9161871642374269 0.4755480994941996
1243 -0.7105567777654581 0.4373132500295211 -4.729517717929827
1044 -0.20861180784390185 0.7945987775358762 1.6415171545477243
1063 1.3067525197358856 -1.5614832631505644 2.772282043075337
1064 -1.8339469085355244 0.14492099754315393 -2.1579559594718445
1263 -2.619862677554561 0.9366777800177493 -0.6659383400877549
1264 -2.448793529485039 -0.3564428897713771 0.3309570965871803
1283 1.1120574766506013 -1.8890557915434463 -0.8539477339571722
1045 2.0005896574553415 -0.0025406525816095505 0.43554947134365185
1065 -1.2373873113572569 0.048661181617550044 -2.656413110784548
1265 0.6676805749589612 -0.8302717636025926 -0.7269047416161011
1285 -3.398334771424787 -0.9195737784954618 -1.5333226437943726
1244 1.1531322011420702 -2.508089909756883 -0.47294025017061975
1444 2.0355825744692018 -0.9844328409227149 -0.029193094951894396
1464 0.40607412610799076 2.1575855214694486 6.2498697967801835
1664 -4.220691520464847 0.004838407721644903 0.3448232999872877
1483 0.26083012372101194 0.09898756682818936 1.5480184777857209
1665 0.3159717819230874 2.028584111902816 0.039637215905436354
1685 3.323873549836278 -2.8265923866017353 0.5049067201556248
1644 -3.7593705946102633 0.8690398633852557 -3.397444829904027
1844 2.8327592617228485 2.882076321027407 1.0752379882785477
1864 3.988259732800048 -1.5046298216560179 -1.5412407232847427
1645 1.0699054236717058 -0.8766929909485686 -2.038979199915849
1865 -5.340348989063527 0.07190396945860004 0.1978054024954682
65 -0.11645559525442221 -0.04630589041644145 -1.7673535511437637
83 -0.35034886441680374 0.2534969141778847 -1.241789634617997
84 0.24713096246774047 -1.8811223166295972 1.4148788233854912
104 3.4891250420226236 3.080583493349142 2.8313748669104206
323 0.7353568709953536 3.2402199895310932 -0.057158964884543584
325 -0.39539735867591186 -0.4916709407969797 -1.0981541493406903
125 0.7740276027892349 -0.7474571801056846 -1.805171250298157
283 0.15522967192949597 -1.418130823392535 2.931156259619958
284 -1.2555366062035118 -0.3517893421593422 4.501489728774417
303 -0.10956173688685064 -2.693415565691394 1.1313048570966797
304 1.1025492431004442 -1.5901258950760448 -0.563970937844393
504 -0.5318342125920642 1.9210446582905256 0.05296882811884161
484 -2.105017833533299 2.081360547230729 0.628427698584311
305 -1.9239931206970835 0.8904689146708843 0.8852566230098917
505 -0.6631662074045557 -0.5973759872114006 -4.099015221333591
525 -2.587341717064562 0.27943603466233913 -0.03296430608502725
723 0.7471143405344345 -1.1686878269803034 0.2973141861908339
684 3.0924699649901064 -0.22507153053249665 -2.02639778436693
704 0.8067768970302042 -0.4087835927738535 1.509612057832524
904 0.9934967077932867 1.8511240696425986 0.26612943048529375
905 0.8871443823781913 3.524389172585694 1.5261817844114898
884 -0.13375378573001317 1.1133548750000932 0.05451510331933617
1084 -1.9661008854368554 2.0619304818896333 -3.7489811407247573
1103 -0.4213422303261232 -0.6401377559617198 -0.7171958230048459
1104 0.44491835406368135 -5.706678808189748 -1.479268726248332
1123 2.5335535329574754 -0.6945388859280769 1.4567463367244529
1105 -1.315532039411499 3.157997656161959 0.27037112631060917
1284 1.3954765488628653 -1.413335427317687 4.822636379218319
1303 0.492144109236186 0.989213650163263 -0.1920769425083571
1304 0.19914948814323602 -1.0759578097943532 0.26960609079339964
1504 -1.9798033787327936 -1.8660789286104142 -2.697112624718378
1725 1.5220277678035743 -1.9921504525016978 2.849449952642986
1484 2.2484445524298513 -2.9620486212938726 1.049552858658102
1684 1.1738483780343956 1.8868669118885002 1.9678954167405631
1704 -1.2908502961494661 -2.3447534545355753 -0.7311886136986046
1903 1.5321906654631614 -0.2047181269286124 4.675525289113353
1904 2.5381083415505112 3.419520178821959 -3.270337910800148
1905 0.10020139014840497 -2.248241253606455 -1.1499549951022565
1884 -0.8982481200305015 0.5667523489399872 -2.6626446079443795
1885 -2.6010789555634224 -0.09173026048909208 0.12435715322884329
105 -0.7540135053463956 1.0573168212445303 -1.386261119216769
144 2.3667941450703314 0.00814806605835975 -0.31191831642434553
124 0.17326612373132053 -0.14071906057801095 0.2534535639516166
324 -0.14426700047155455 -3.898259936887095 2.649726186918446
344 2.749419467417456 2.7709192781066165 -1.2734860471696523
563 -2.163222786225889 3.888969768099386 -1.0480128613842352
365 -4.012204951223607 2.7659448248086607 1.137467178389963
565 1.9878711052678029 2.7437441697679925 -1.7427743889310823
523 -1.7006642047287848 -2.203927491304891 5.419362040003496
524 1.5685110539015295 0.469712630074244 -1.388821960615238
543 0.04298105130033309 -0.1087633990861084 1.7184631453684718
544 -4.879880892635631 -1.2196922414834943 -3.2160578529870705
743 -0.25812807642237057 -1.376153144817388 0.20225996595106271
744 -2.351995770579027 0.15706039660218296 -0.3648271744380054
763 -0.1780866492559768 -1.125434341677662 2.3330206568664833
545 -1.8771705393209686 0.0032420008982034358 0.6026447729878402
745 0.7264981864187136 1.3291295877250058 -2.104247312871768
765 1.1230126690878377 -3.8865768272152184 -0.2753514064618198
724 0.19825432189259945 -1.7991242487801375 1.0322649975812286
924 3.3372907099194995 3.6217178998507333 -0.6225535230475963
944 2.643953791245851 2.8284921298227674 3.065732079610009
1144 4.3508287271549895 0.8305054935122029 -1.0962006335750896
963 -0.21819580628844568 -0.213433802381331 -0.21277720495317098
925 5.144896553214083 -1.6223282473598608 -0.3529894590297442
1145 -1.289326534635331 0.5806205305272996 2.863527801214615
1323 1.2011677050379213 -1.5517817237438756 -0.3055458226419217
1124 -0.08317884238037464 0.4856218455975043 -3.1797620458155413
1324 6.112641171732039 -0.1996521492230413 -3.0796203024108553
1344 -0.15596839036350443 -2.6405551270326595 3.516654289410744
1125 2.4746593597569166 -2.767906175403298 3.700611496115735
1325 -0.35848145981538715 0.5763392073374495 2.5265772061888083
1345 -2.64825439278394 -0.38859203422467303 -1.160610802684261
1524 -0.6060575585490333 3.339098249520271 -0.6012019249556932
1544 -0.017232770852619757 -2.231628782281668 -1.0729447230104754
1744 -1.9875204787228937 0.9259660886148429 -0.036082227838498064
1724 -2.9472784852921965 -0.5234505026713306 -0.2714985487035778
1545 -1.3851924011460923 -1.9663225318549615 -2.5783021990044857
1745 0.37082004830245885 -0.8056070129474993 2.2292597381273587
1723 0.707497662773412 -1.538202333455918 -0.7901189289557486
1924 -1.7948198767920718 1.830130621307026 -1.8656936336804697
1943 0.5120520258649286 -1.3412647566786777 0.20663681671472361
1944 1.2357347032794928 2.6477304735336804 1.0154951780138366
1945 -4.2170040228401575 1.3235585247982764 1.3837498590915613
203 -2.581747799184118 -2.0293435875238486 0.31991157382831714
164 1.2703630866229765 -4.250007240696143 -1.567586610537816
184 1.5755293737056932 -4.581620629038937 0.49509582485291315
384 -4.183629230936412 -3.2409188513659557 -0.11389436109561647
165 0.45060241320835204 -1.9287762077905433 -0.5222772899780458
363 4.161813407204837 -3.80133251792916 -1.2289265740165456
403 -5.492918043686726 -0.9592181722244565 1.4737199071317677
603 0.010470538593476861 3.061267969574671 2.5677446150541043
364 -4.7158606636895595 -2.2609839818351816 -1.995770069085587
564 2.795977896148625 -0.5473377739697172 3.7221899782952015
583 -0.006092420974657942 -3.440333385446622 -0.43464671031242263
584 2.211434997977016 -2.5667049860078173 -0.7434583773670494
605 -1.0933263369041442 0.3426966264879348 -0.8752651147495957
764 -0.7194861801828419 1.3034405840953283 -1.6582715326026054
784 -1.8208371014520524 -2.4910747405208222 -1.6895776874525656
984 -3.1099217146698344 -2.1455257934216267 1.0437092357006894
785 1.3033233779335016 2.2837645594644886 0.9074604401809296
985 -3.1615989764848433 -1.3636568221203287 1.8081549344600638
1163 -5.731688029761799 -4.826147338607392 3.4072779208951407
1203 -4.507054733074121 2.745100986666747 4.879048309021198
964 -0.18812779620261008 1.5953612156975887 -1.963414121324132
1164 -3.414370784435935 -1.1252986786711066 3.077702365254151
1184 -1.1007695600631904 -2.907057380326991 0.9564626557930731
1384 1.4408180443541523 -1.5435062898323257 1.8169045910506167
1165 -3.203520845465584 3.440375309986751 -2.4623513835735626
1205 -2.5002265638546852 1.3658168236674413 -4.126153208659104
1385 -2.4619349574555622 2.6005667376939106 2.3040515951434117
1403 1.801962137857279 3.155718403833692 3.483399464584962
1364 3.227967754111417 -0.28211416823417546 -2.368688603205401
1564 2.3208468616728037 0.7402564768146538 0.8423736495937248
1584 -0.5693240152360531 2.0491819694479343 -1.9983658402688567
1565 2.7677381349198846 1.9638230630307276 0.29208516393948003
1764 -2.371567917124085 3.846313770145899 -1.113315402059899
1784 -3.3972083222056044 3.9676949231497587 -3.4410626805876494
1983 4.582954661294364 1.4747792386710041 -0.1151797869350341
1984 3.8063120176128216 1.396049666975719 0.23257417198474603
1964 -2.077102305800837 -3.5422887590000816 -2.59262331302423
1805 1.5439155188258569 -0.44424781974408895 -7.942794675745139
1985 2.7170960654114618 -5.47505990594255 1.071014992958364
185 -1.256185898950489 -0.6318406450595346 1.3561849091552178
26 -0.19353948596531517 -1.6922890524321976 1.330934398777342
6 -1.3391086070062697 2.0259833396039326 1.0383855667426256
206 -2.8162036497729814 1.7389919910259242 -1.3771352709609126
226 3.097795101214913 3.5024843315125787 3.695396303540654
426 3.6964759733648163 0.0989801031679439 1.0502070931140535
427 -0.9051034322522356 0.2569463630921252 -0.9394474851690685
7 3.1506341452307343 3.1550428753388067 -1.5690172679024812
406 1.4680163832329451 -1.0094090241551361 -4.448739246875814
606 -1.0059290168530368 -0.19737903913945967 -1.177302391176145
626 -2.664351941686938 4.819328965092727 1.7233048682928764
405 -0.4555475289599796 -1.926646749377202 -1.5110928493127855
647 -4.430005072579977 -3.003970720099791 0.7125357230524568
407 1.3091318521218986 1.7894953477748086 0.3077300769360489
806 0.9802223811739124 -1.3253139678970105 -3.2528599832911294
826 2.620753486624722 -0.6973476020291118 2.186371632634566
1025 -0.9503321718058804 -6.132384451253077 -1.7802832085998952
1026 -2.5481507540377493 -3.295715924860247 1.6985593100647265
1006 -5.60812604174125 -0.09700469252600889 -2.2042530161079315
827 -2.481453860903627 0.8548727910064141 3.1786816639593543
1027 3.4249472678814086 -0.7116594817574899 2.8975850974818904
1047 -3.4483453770702366 4.7508574218412525 -2.241343231922058
1206 2.972427024676272 -2.1588927129376585 0.9544123707654173
1225 0.8676994796033021 -3.4997177518744635 0.9611664523305279
1226 -0.49693290148194275 3.465543753071406 -1.5971000441453158
1426 -5.280958704794519 -3.687053785378197 1.3907650958325626
1445 3.2977214702509783 -0.15263756717052315 -1.3437131926713395
1406 0.5752801043847994 -0.30183033681858035 -1.6424710906757405
1606 -0.5719900516866119 1.3066139692815717 2.1244605847851155
1625 -1.1189743679325814 -2.177725463341289 -1.2446887437511867
1626 -1.7265928689762986 -1.328267410447321 4.610703631027921
1605 -1.679003664483941 -2.0038822845481152 2.2725226762234643
25 -1.4625923197231103 0.11856804343681099 3.023209075766051
1806 2.0845240578162416 -1.9408574337134454 -0.3810367770237069
1825 1.935592500453892 4.066202277774544 0.3698348043759539
1826 -1.1594846171685487 0.6795036266408985 0.22573477116673293
1827 0.8615957324439768 -1.9139489903021822 0.45950786168804336
46 4.012701836082219 0.6459760548618836 -2.352007407210545
66 4.466432755588141 2.679280954739749 -2.845620359073112
266 -0.6918444996816066 -3.038268374441349 0.26488417087302485
285 0.047608831942731085 -2.5579621124761003 -4.797959122188265
267 -3.016019205452226 -0.8236431467546348 6.760376083434477
67 -3.249361120775222 -2.969896650726431 0.7436562930267062
246 3.9188217086805155 1.4932436869566776 1.4040352928962436
485 0.08072367110868608 -2.652504913172072 -2.6879539616609245
446 -2.4210669584337747 -2.212482039582782 5.382015367035198
465 -5.896867771009185 2.1983765647036106 -3.982342712500692
466 -0.7858686738540858 -1.8052615303035087 -0.07264245178681797
666 2.427615777157986 5.011869419305275 0.570995097989286
646 2.925105452711936 0.4840439046052704 -1.5709353710671021
846 2.9769462326122036 -0.5426633693706693 -3.1655130952233055
866 -2.2393101354528726 -2.6698748246858917 -0.5425141075373419
847 2.979750059047209 -2.3765144988448506 0.01705302951907945
1087 -1.7270615582758042 3.8263142690751386 -3.584799195797915
1245 0.1832448970467438 -3.160803107629406 3.1467683954972894
1046 -0.10401968314196522 -1.1507018408806908 1.9647497217784184
1066 -0.6085700028010467 -2.4458272076427816 -3.5448907685408684
1266 -3.1024724107218407 -2.998387358555008 2.5841180155865984
1246 -2.829914804227162 1.376760135043824 -0.5504942679781487
1067 0.9684722216545185 -3.2609060839065616 0.5975340365924645
1287 -2.6949953482610747 0.9711663229097651 0.34802556516446176
1487 0.9110553277063613 -1.987614929107529 0.5865579565389384
1446 -0.15291235532924916 -5.942429476799389 -6.640430625453849
1465 -2.775070159882709 -4.427256752741644 2.9732245691276242
1466 -3.2706574748268165 -0.534602789924343 -2.803022550698957
1666 1.9322959118773728 1.0999203193005977 0.6956859952838856
1467 -0.9810505163689287 2.0525445991837956 -2.5743850429262225
1667 1.3545314402485378 -0.800537502446946 1.3857135130544946
1845 1.316997117782653 -1.175809735903866 1.1376471706593274
1646 -0.007827771136884362 -0.8871571456940059 1.3999935066439044
1846 -1.410578454722298 1.5319062586558034 -5.721509170638249
1866 0.20353409209536535 0.7995140015126572 -0.7846407076794939
1867 -0.8837069299119132 -3.9296390399718786 -2.3371304502218453
87 2.0706948534157434 0.3682297074506737 3.130023525190343
1887 -2.068415040201417 -3.1015109479516716 3.8964669990743035
86 -0.7582638853994323 -2.309458618493694 2.78096234890309
106 -1.960194039263052 4.400562837822443 1.6212647346313223
107 -4.169643107278187 -0.05279039904153539 1.248449541637577
286 -2.465022121413202 -0.5806415035126345 -3.1399037379980763
306 0.8149956661566373 2.7436852177894897 -2.4943594706694627
506 -3.399088914161591 1.8374477752578764 -1.7443177692314022
486 -3.6407737030529472 4.523837787350846 -0.5437182686372692
287 3.8136114386402222 0.20203918081916072 -4.122073357761257
725 0.8669188422047722 -0.8664762661232547 1.9671688158684177
686 -2.83747407695026 4.1837369572017815 0.6541466133434715
705 -1.012649811230712 -3.7240711844939267 -0.5935957718455408
706 0.7445443132453184 -3.3823515283003767 -3.9814478798857733
906 -0.9980382703903583 -5.761458116985846 1.3602272626461405
707 -3.868783950694281 -0.9147919460975499 2.4918415494790414
907 1.3861859987479932 0.8117957514031442 1.2777954074434774
885 -2.91749767798694 0.5332514067500408 -1.9544467407025548
886 3.8584113642997138 -2.3034293631871714 2.017721723441359
1086 1.3319731334399991 -0.12676574154056403 -1.4060072213624775
1106 3.42755664581555 0.5473813342240705 -0.9011247665875487
887 0.2993501465778093 0.17105182728475388 -0.9058898733350128
1286 2.1617436513816224 1.8396930037796377 2.412219082442038
1305 1.8714723630631307 3.389746097078241 -6.23493275589971
1306 -6.256942679304267 1.1881764186523984 4.586443385847726
1505 -0.5193108723246701 -5.825305654291396 -2.0292892675548666
1506 -4.516452306460343 -0.7513522679749914 0.8510572317210789
1525 -0.896169506101066 3.0939554207673186 -0.3177439974275945
1307 -1.7732457079984731 0.13047610818485536 -4.165132842988874
1485 2.613842198429682 -3.726696172010548 2.8137630201391883
1486 -0.4741100409501742 -1.467882450982803 -2.621537727499363
1686 -2.4848662871050027 1.7657292885984897 -0.1809739935219775
1705 2.2604013178730846 2.4865117473262255 0.7722437381449703
1706 1.4096692230722834 2.1730943657328394 -2.6897182778410786
1906 2.9133152085029224 -0.35622259208975215 -2.6936972311080503
1925 -1.1838733304895837 0.7541391485896028 0.5104877515607384
1707 -0.8865020047572015 -1.3053380521925473 2.5874212816973743
1886 0.922284847456648 2.243606820401037 -5.5432243004408885
127 1.5093589268633376 0.5018230418055393 -0.5408839130621368
146 2.377273299329577 1.9395461215177747 -1.6308320209743317
147 0.12645771125838007 -1.2656790753302587 0.43119504490665506
126 2.7708304657752802 -5.757331926088763 -1.0596182083186112
326 -1.2590112642974034 -2.4901471127191033 -2.7967908507125547
345 -1.1707695210280769 4.354517088717201 -1.1709714101182374
346 -1.7487488024391724 -1.486566050916328 -0.5126577486145705
347 0.832079020306625 0.11006806220364464 0.517177370338224
526 1.5659364962312892 1.2488777276515601 -0.9069724203451572
546 3.892250187432926 2.2146514220784295 0.1542666434588249
746 -1.4613919240452318 -1.0853011978819744 0.5623730080057917
965 0.36965143662219907 -0.8075063241172946 -1.073103022553399
527 0.8054316982599481 1.0751048406905803 -1.9528132847704305
547 2.4852203723606223 2.5048444185024987 2.126649524914441
747 1.2414801725375906 -2.0141796831811454 1.6658444097120277
726 2.4061676358659665 1.2352017514075293 -0.076323909399834
926 1.322857369696679 -0.6422753221135672 1.9245769558631582
945 6.195186541714165 -0.10883985872298312 -1.2273327852981009
946 2.503311078216502 4.199539821365738 1.3949601067498012
1146 -2.7674222704718034 -4.169673563554757 -0.7055574971716609
947 0.8128608852193048 2.734035135802626 3.4072088543165124
1147 3.8946579766920433 4.680873718623407 -0.23521809959467707
1126 -3.563173235762444 -3.008860403680922 -1.7868658500756598
1326 -2.1038247106504944 -0.4871061424182954 3.55981201056582
1346 -0.03796998738307927 2.0080977560999695 -1.6052403577950412
1365 -1.4276104400971055 1.4536279421749145 -0.6398503355334039
1526 1.3615638443139224 -0.8645973886440258 -1.6568434728647825
1546 -1.313781862124827 -0.023685450448695636 -1.6013594973452132
1746 0.42427511142436186 -0.07121359638294911 -0.7430740075267923
1765 0.8293075229177342 2.325838251137448 -1.616479586772814
1727 -1.4976139851000574 0.23593444466512817 0.3045555061833582
1747 0.9146241691823264 0.3862266442308583 1.4339308125624004
145 -2.7762558077583126 0.3037520368658427 0.08224019536415421
1726 -0.9432032365619104 -3.46819322004928 3.504994329195767
1926 0.5478313753934514 -2.4936854923072325 4.625882537755148
1946 0.6309691470161874 3.9172837817992288 3.0362442225266193
1927 3.250537226080793 1.2838789889000264 -0.297031473901932
205 -0.3521741213950024 0.8393768248179032 0.7050443294032986
166 -1.054310639842566 0.6914480622212066 -1.2159271382657761
186 -0.2991708578720698 0.9759986113414444 -2.3196219116616588
385 0.24357177121726792 5.578685918319308 3.8403598302812045
386 -0.3952938518279811 2.723095208658941 0.6688328184119634
387 1.4394811367530456 -2.623620474757998 -1.9980479586084496
366 4.392652132142756 -2.0915047004365506 1.327722369489588
566 2.4350200779831512 2.106622707119285 -1.6436114222858325
585 -1.2559420020019676 -2.597953227323642 -2.8286849411167356
586 0.5866089551772183 1.5988803275192895 -0.4773355250257956
367 -1.2621250654132135 -1.8044110543702927 1.5724625596061463
587 -3.620581370423275 0.20624813226683036 0.4222282463428403
805 2.323028050354959 -1.3155174241760585 6.803960355381722
766 -2.8873773943593113 -1.275466911030731 -0.5859184012385833
786 0.2617220732176153 0.5144846762295806 4.290944335649545
986 -2.9623644744210904 0.20751294183248672 0.455587518410515
1005 0.7065433055749138 0.8364265810679494 -0.506263901361599
966 0.5353129576896767 4.6081568672381925 1.3297419962882517
787 0.04294591634670076 -3.3924647484738677 -2.069337692842746
1166 -0.32538154509455 -1.3145075994554156 -0.33937732720295805
1185 -1.0458676593828748 1.7717923235979396 -1.6490898673811498
1186 1.2253562905377884 -0.6278130836011664 -0.3367022125270011
1386 -0.7767080304011762 -2.8973918879975056 -4.104753218525205
967 2.2743334148790244 -1.7093287195308435 -1.491585922466864
1405 3.3626992653613192 -1.9198200529982639 0.26516518189908544
1366 1.0837915289912974 1.3311645518505528 2.1906026014554976
1566 3.595884745322949 2.4251529031500563 -2.6588259000382313
1585 1.0507624082172902 6.119399206698861 0.7296258456276551
1586 2.771178117610693 -2.0912217223959875 -2.526684043237741
1407 -4.008175918643747 -3.5182942891289963 2.9359883351338705
1587 2.1730522834929507 -0.051435404807363395 4.128804238404239
1965 2.548604023952606 6.0418910317549335 1.0814513640595735
1766 -2.8271651142690812 2.5370890782311677 -0.44505758852398647
1785 2.789694993726573 -2.9843541315534767 0.11382712064417973
1786 -2.1784837797193455 0.36838787800774514 6.563953638261773
1986 5.251095772873094 -2.1133180582234607 3.039113538931471
5 -0.8269118542200377 -4.869180757346815 0.7919760449273157
1767 -0.5252021891629043 0.5073807259019614 -2.611444854633904
1787 1.5752914043811563 -3.090413782805757 -0.49851171976359393
1966 -1.1996607899845027 -0.7973143823556889 0.5037952693599924
1967 -6.222170047939297 -0.9930825696368534 2.778981936266194
28 -0.655210163688727 1.9671647105203958 -1.770958509203732
8 0.1118098091996894 3.074897724661579 0.4422249131905005
47 2.6625757363817213 1.384827638941014 0.7175318812871181
247 -0.7965880986314877 -1.6499699045096563 0.40572344137722116
208 0.44877123516670697 -0.4648557379866905 4.52076123605091
227 1.0167130741617272 -1.1655972238060683 -0.35439344536287215
228 -0.6647693589087926 -2.2696694817397485 -0.9399765331663504
428 0.5615868768770201 3.498863724158891 0.8646596120151513
447 -1.0337976455835522 0.2919447660067631 -0.8231866525362415
207 -0.9680893845463369 -2.2634919713155006 -0.7003619960127261
408 1.4877502550823778 -1.3785647041435378 -0.24499833816339686
608 -3.0549660774249814 3.1293856428684057 1.2802627411888328
627 3.039167823593255 -0.827295005039413 -2.320126209484828
628 5.6981463114163455 -0.6679132186882499 -2.5141589908714774
607 1.200648432378252 -1.22063730716124 -2.128168919476013
629 -5.0016043586033705 -3.24565460288433 2.788067068649794
849 1.395192827124689 1.233443334523219 -3.7005916239180143
409 2.322635624671894 0.4317785321683338 0.7333187575474098
808 1.523789964704753 -3.2739339788403625 -1.8937110510649915
828 -2.9792118921211066 -0.7107637019274141 1.078767767980523
1028 -1.4422181689131945 1.5927313782031116 0.5102287058086051
1008 -4.594028815021539 -1.0855011158274257 -1.9047924641989005
1247 -1.149961352073627 1.5701294427716341 -0.1382218276691903
807 5.103460874586661 -1.6475397634974116 1.6630365956005861
829 -0.4692061675316712 0.8006712372039304 2.7400211740951885
1208 3.8920058155478943 3.7095740526530068 1.9547995269660896
1227 -0.05214357970486603 -1.6991088019029188 1.8206184072648952
1228 -3.583638444462895 1.2552213043728968 1.5404376848079078
1427 1.3939532122283156 -0.14317199949542417 -2.1058289216548136
1428 -4.08062687307762 0.8636262577687374 -2.009820676120342
1447 -4.954404820072062 1.2259078195335467 -0.11045449742991717
1009 -1.7667676356428905 -0.9242483184872223 1.193571577989543
1408 0.10679524451658022 -1.6909355283472178 1.112223994341243
1608 0.08405813077132789 -2.111900899798698 -1.8570772064865109
1627 1.3209787793226087 -1.457146602854909 -3.095415016100372
1628 -0.7019129081725828 -1.4668531722739944 -2.0758300802864116
1647 -0.6508115730744697 0.271321952093162 2.009691814274403
1607 2.0672485980354844 -3.002596163583248 2.3166844613758792
27 3.5490858106446264 0.33748381927198023 -1.3943189602362884
1808 -1.1092675466067186 -2.4626655073029546 -1.4233350537335692
1828 0.07372604585297386 -1.654983017887711 -0.0029196064913043244
1829 -0.1094015478128221 1.9122920960603098 1.1254091995785114
1809 2.195229838926204 0.7074417542063911 4.469457055721119
48 2.1628538074116612 -1.8259310748935798 -0.5563167780218552
68 1.9665329036294512 0.2494668023698125 -0.01976687634715341
268 -0.25485931367056636 1.6594961736319702 -2.489795877936033
248 -1.070983326051838 2.271023049162308 1.8221129981810542
269 -2.9400501663151606 -0.16684391995554604 -1.4256618833010546
289 -3.9282834162739584 -0.24606676810055397 0.10964466087498012
448 -0.688866215617683 -1.3196916740439664 -0.4422398206186572
467 -0.4930949333338691 3.4248554367045276 0.8459051046783439
468 3.5242340732552804 3.716893273144754 1.5191740962402707
667 0.37976265586607527 2.3901024568007885 -3.746551946424623
668 2.8038340630757292 2.705978239128423 -1.135303479826094
648 -0.23895857857843192 -3.0961269655133554 -1.4903658543702143
848 -0.33567811930613056 -2.0299721255023306 2.2479220934824906
867 -2.652275454488572 -1.9140912500831964 0.5767463220343982
868 0.2880981352649802 -1.4218787358796081 -0.12868341836371575
1048 2.066179249276572 -3.6197203395420168 0.8929936188383579
1068 1.4547711794692597 -1.0124371294500412 -0.10654284618723862
1267 -1.8051772204188785 2.5723766227052707 -0.0962378278164128
1268 4.2105508270350445 2.069378191830536 -1.3500197125236642
1248 -2.2724011742026975 2.13891932019141 0.9095961165979942
1269 -1.551430386897465 0.36232856607235037 -0.6152953015588983
1448 1.6219041314515055 1.41244033624019 1.6569491532523943
1468 -4.759721210966671 2.8922644219255926 0.20031371436199724
1668 -6.670782760615167 -2.2820996157273723 -4.021469544195411
1469 -1.1971880992520276 -2.869478476497054 2.5413795474917644
1669 0.20410756162527707 0.057600697396705515 -4.538377025985982
1847 -1.631624179233126 -0.5437626160525437 4.82560079049529
1648 -4.897064672849427 2.939801876082618 -4.521641733291335
1848 0.8821502040332369 -3.060780802533239 -0.7452556503592461
1868 1.3049661492520308 2.6787419213977737 -1.5965958062647188
1869 -3.8737599715616966 0.7001960966353801 1.4521665482608352
1889 -0.7553648680391215 -0.8994883591016128 -3.5671615913306502
69 0.3625597771158666 0.7673465751308368 2.444300815486826
88 1.1262556984338246 1.8117394694242872 0.4474938753091736
108 3.297130683094219 3.5204091359291674 -1.074111022282721
109 0.15699760723372416 -1.203780427831758 1.3322073959649625
288 1.1946799377238475 3.7554907545919995 -2.4431460207228657
307 -1.8296590958180359 1.7677669108604255 0.8023735769015484
308 4.248271176051194 -1.7565708699806561 -0.5058276760763589
507 -1.0419343490879025 -0.9172948417479441 1.4263689053373645
508 -3.9717159087754528 -2.9903365504615267 0.5302030993028028
309 -3.217223953146482 -1.0582412774740924 -1.503766984319968
487 2.2561765305604893 1.3616558427103316 -2.3283987029272173
687 -1.7714822339130034 2.280732020180786 -1.818460005302116
488 3.4728368029145127 -0.3220076011816105 0.9694141738236496
688 1.6460996720799865 0.4752053663738172 -4.19086977308569
708 -1.0372110360523068 -0.6488452435357908 -2.5915464899726053
908 -1.214100047683125 -2.839779585669871 -0.28628706003422966
927 1.0669790687810043 0.9067973688722694 1.2329153612240595
689 0.27714861246937517 0.34486364066943465 4.384513349976979
729 -0.9555551306430244 0.6353621214922451 4.0759301281892055
888 -4.110249311026807 1.1544491750347248 1.1416264884443517
1088 -7.365059248990326 0.37164114425881345 -1.9874957748252764
1107 -3.2170978648341175 1.6162414769295528 -3.469002685913258
1108 -2.0489027217441986 0.6283825218830551 0.36136943383250114
1127 5.343311546314829 -6.407515455279434 -1.8304371545509406
889 0.7425341262928901 3.173937868916236 1.634431971283481
1109 1.0553060877418332 -1.8904570036072275 0.3431192893843567
1129 1.9928255591228445 -1.0164243592859061 1.6113653579894562
1288 -2.203765003184043 -0.7799050903437312 1.9383858619707308
1308 3.978648270740401 -3.872679942014403 -4.658067424277205
1507 -1.3537181909190183 -0.04634187103820196 -2.221623281706117
1508 1.2408044456981377 -2.890098831372619 0.28011741950719826
1488 -2.0585306572992392 -0.3000729835650488 1.805569314019861
1289 3.0189705176875608 2.7326378354376466 0.7821701025267787
1309 0.6694682542648117 0.8586738857876731 0.7630455344836669
1509 -1.1070373377546743 -1.4593150512603201 1.5013418754936296
1687 1.1295772814141387 -1.1113034474805599 -4.427079524256263
1688 -1.641398753828166 2.3446892208381134 -2.0635677566158837
1708 -3.5226969276130378 2.6583886736244646 -4.859754876135626
1907 -5.073067050131955 -2.232948651773819 3.7664125473751193
1908 -0.07420753154284468 0.9374530364292577 -2.4147595456029864
1689 -2.655506596838072 2.9691133756533756 -2.8119349302671566
1709 -5.999993827696728 -0.1848015921355609 1.5468553733099035
1888 -3.211498016679869 2.8032172372880044 -5.4197534775725575
148 -2.3204672823198513 -1.4155749365768255 -0.8567801448262891
149 5.760597902070539 0.7833648447140056 7.233034744049984
327 -1.2997567406575805 -1.9179096005513814 2.0481676475491875
128 1.5188725685218485 3.149012426745232 0.8065487123499361
328 -0.43475050486658956 1.1086014852569814 -1.0862661035977637
348 -0.6523483001648304 -6.08062488916919 -2.7562114218446925
567 2.30833946424894 0.9128478202769456 -0.38893857687941047
329 1.5639608689764477 1.6852393600438893 -4.640702664932995
349 -0.09595574629768623 -0.7289198500838798 2.7269589004519723
528 -2.4871947031345907 0.008563117626676699 1.9267476534466437
548 0.2784199457791003 0.5948402068657053 2.4767162076802127
748 -0.07505304489449387 0.7585491943048884 -0.8407296553519409
767 0.7791632157674973 -2.367089716768252 0.9134132251381938
727 -1.7494866569061298 4.387881591124576 -3.033073126687176
728 0.8127494502916955 -0.9197806202510087 -1.5473035521969343
928 -4.596297497835243 5.008334512182176 -3.592873671467739
948 -2.304357574792743 0.35099934916991415 -2.17336073461882
1148 -0.886667923098732 0.4258937353103692 4.036294458506217
1167 -4.230866895833321 4.049842719308122 1.0787797669843087
1149 1.6609282621471873 1.6657903959919707 -1.6360451500448798
969 0.5641831018530532 1.007415923427075 -1.8145605150977016
1169 2.32033011494542 2.7783158284144203 2.1292464511801485
1327 1.9406892349202884 -1.7695308084619688 -0.1693001016431707
1128 1.351022269835709 0.9826049782715857 -0.03998919273580859
1328 -1.3193716400353195 -1.3185316529341435 0.8193042062625686
1347 -1.5710026130005683 0.5411164065971533 -3.867996443433772
1348 5.687213314459581 0.8473472662483381 -1.0730095525293453
1329 -3.117980484893384 -0.13254152867388075 -1.7292969773917621
1349 -3.0328945689103373 4.6875506996916085 3.6933232173150174
1527 1.6914580539543442 0.18347180477891367 1.9964139301044284
1528 1.4812987787801795 -3.000990625056759 0.6723502355264416
1547 -2.2015658918314207 -3.7459789957957446 -3.5433039262775057
1548 3.0448037737816223 -0.4376717513771345 -0.913472223379773
1748 2.8076304558090235 -1.321751449564465 -0.8849016609999009
1728 3.46081792177037 -1.5009253246946905 0.47741406828517224
1749 4.145261705802602 0.5996405406863062 3.1137616194283306
1928 -0.45373868050855537 3.6084719797399987 0.37381708412079173
1947 -0.4101146350106634 0.7084101513585321 -0.3646340213904214
1948 -1.3911953844430711 -0.11108825086202667 0.23298771718836997
167 -4.119086922033532 1.1864235727301355 -1.2168809836343297
168 3.378185190260289 2.2067795762822215 -1.3509763819402831
188 2.2084675429301273 1.3355021257019193 0.08653651382543942
388 1.0555879452640873 2.53878946358113 -2.9154011528727772
389 2.479147207691169 -0.28172576162808716 -1.2416872962076395
368 3.2332862324248004 -0.28469408216882025 -1.2023164422468113
568 -3.8344661121062296 3.683519372076332 2.7229842665775066
588 -0.08691261627437372 -0.5059008678663517 -3.748236506449623
569 2.609378992220129 -2.8347753635871205 -0.9987923634521712
609 -2.5860071568228826 -4.285295714431719 0.7380474515610744
589 -0.9278947051593968 -0.098590289613168 -5.751096525078709
768 -0.2566819512658061 1.0478769974652298 -1.1995166907831176
788 -2.231725267005078 -5.816357921753283 -1.477488404123171
987 -3.592323860640692 -0.10694899848509047 -0.49905992859347603
988 4.122482722296831 0.6171407252122669 2.1404830043143663
968 -0.35000207475524087 -1.486945297852205 -1.9537683120135094
789 -2.435959365057015 2.731578102158904 0.4876870935164598
1007 0.2865894797633325 1.6870284379405605 0.4842374367626757
1207 -1.8820413703189354 4.440881712351822 3.9308433333150137
1168 2.987411165682136 5.367169449884204 1.970769557815452
1187 0.8150044289032415 2.8455211523553268 0.6479193537722445
1188 0.037997141036033896 1.9427932875327676 3.267778498517928
1387 1.3609777925615703 -0.5760912585552397 4.581779601262752
1388 1.9763581095625595 0.00910891817923633 0.7467765550779064
1189 -0.8925228501891236 0.6931465690966407 -1.340729169719404
1367 -4.40822623256347 0.3440045742340333 -0.3358799822099376
1567 1.1069002083938189 -2.7486633714367956 -4.47136358667001
1368 4.2256230369220695 7.324204670523029 1.3137617673016402
1568 -1.0972636427482296 -0.4857630464547987 -4.1470182834313
1588 0.6112690526356356 -1.979670376541701 -1.2950518815096348
1369 -2.72356563234064 -0.11776121494590235 -1.7838875531369272
1569 -2.5293779970660513 -2.568660762817124 -0.022675722073114937
1807 -5.652557498304753 -1.4770584436137413 -1.5169195461518448
1768 -5.2396570559379745 1.0231439970731706 3.4739250573005482
1788 -0.021548640476765125 2.758203438349711 2.3879034176140093
1987 -2.2019854038491666 -2.65427063365977 -2.9693151075984563
1988 0.5737827012255791 -3.5096284542015184 0.5160656543337666
1968 -1.871528670010299 1.2361320957796031 3.369158557716613
1969 1.7395419573277278 0.9584259039447067 0.06665190096103973
1789 -0.5798761666153696 -0.12950950945635903 0.284470265088812
187 -0.017366914289265335 1.5137565323455364 0.47938874842402196
169 -1.6523872418350314 -0.1028813051390945 -0.7620276493810109
189 -0.8975443652969047 -0.3237443152116722 -2.6269346585881483
30 -0.18893738476383398 0.25806858646179315 0.14126556824797776
10 2.8226790808189204 -3.6772935324526044 0.25945841022551436
210 -1.3906862698381934 -1.106435492642992 -0.9408950255244415
229 -1.711435196660181 -0.9348115646471462 -0.8680875123484117
230 -1.2928963695885451 -3.2521185175939977 0.23132903792589898
429 2.548272916696528 2.5450472911970055 -3.118554001018022
430 0.7872207576410994 -0.6178741885234936 0.5056587390686862
431 1.9458285246032556 -0.3541494767508329 -1.007862018492679
211 0.7461000216544436 -1.010100814951104 -1.6880862312042866
9 0.9778896285694197 0.05209731037879496 2.0814717172176675
410 -0.8956898605894767 -0.5321082881978951 0.10656753203924263
610 -1.9784268345568286 -0.5410635610134301 0.7499479163708395
630 -5.252455284552488 1.5754951834041633 -2.369077043512961
649 -0.44365320955589976 2.69066253525746 -3.849182298739304
631 1.6562484495283805 0.08152429000351259 -2.7775093674178715
810 1.173255377599082 -0.9825590815281713 2.5924395439480348
830 -0.35322629893860025 3.94494162948577 -2.0024009976807102
1029 -0.15780613121246612 0.3815450879629032 0.979318816865492
1030 -0.025928798108184447 -0.8565538638404366 -2.649860244300952
1010 1.3714358396496424 0.27981580136078904 -2.4631557806324085
831 -0.13400388606886632 3.3203827103219874 0.2672021135678913
1031 -1.2645227066250642 -1.647357802082243 0.4029334400924876
1051 0.37707553632794333 1.0036914511705162 -0.7007287757187151
809 -1.0364031937216749 -4.029269093338096 -1.9540399951210239
811 0.04819172277972809 2.8594599460523704 -0.3843381611815086
1011 1.2974432375674199 4.028196330731633 1.807281052776249
1210 -0.25695751305906406 -1.4827178211674745 0.37010708060182185
1229 0.1767285035276487 -4.955005675420892 1.0677606699138364
1230 -1.2150576422587696 -3.7461976082071007 1.3488275453924206
1429 -1.8592665297803277 3.0115939341863482 -4.680006473273346
1430 -5.848112383046286 -2.385856114499972 2.3716632039084846
1410 2.022889082954394 0.3002295015164138 -2.2141865985618985
1610 2.4349546433620413 -0.867337937114141 -0.6301788753357694
1629 1.6143869025555693 0.7048141158445352 -1.373135337950603
1630 -0.05261983218560839 -3.0006870438721296 0.6479950700735887
1631 0.24428682149243394 -0.318907973771841 -0.5613685681062998
1609 0.06770654177288066 2.1267735254356728 1.7686333141157196
1411 1.1099758569163092 -0.9698409000912672 -0.9671356561286254
29 -0.4682969041340641 1.155602051167265 0.2907792307401296
1810 -1.822460511460854 -1.954272715671144 -0.5257129948172228
1830 -2.899176834034382 -1.3129370108854619 3.3723874456627043
49 3.518728393008115 0.7097971740874517 1.1767421080642904
31 0.23664312250752725 0.022739465101586136 1.4249063149412722
1831 -2.309667520411806 -3.440983846715468 -1.7930844819055705
249 -3.1607529558740204 6.680760395373138 -1.9153746087705392
51 -0.8265315672315773 -1.5532290003525029 3.607617590472613
50 2.0378952930554894 1.3214687556282414 -0.8118491641237694
70 -1.0183491753130347 5.0837601385064595 -1.399664276204401
270 0.4248143580146434 1.87887206420783 -3.8092014976495028
250 -2.37566023941676 -1.1016531577092437 -2.1141996184603924
271 -0.38067001758465663 0.45665174342454107 2.7728951986463226
71 0.7129951280774067 0.5582271652834183 -5.61712259029874
449 -0.6673356421546235 -0.4122012626790787 0.8059816955083764
451 -1.3672806691681056 1.7305108066555899 -2.7170560566737674
489 1.8127956822469253 -2.769769062743913 -1.2094786841594476
450 -1.007046488573067 0.4368177291345033 -0.6535405390261377
469 -1.2160636592942609 -1.3458335519084041 2.318032381631617
470 -0.862712703194153 -2.0052374627996343 -2.3422715269522656
669 -1.0824742936809375 -2.1040164090273437 -2.2036804244216786
670 -1.3307090947800067 1.012134336203804 0.5845907139506523
471 -0.7649563092263372 -1.8056290387713472 -0.5645808367428535
650 3.6488578879961913 -1.9524829330713056 0.824239390709952
850 -1.5577641601579062 4.122024221725474 -3.0791825743835797
869 2.697121803799948 -0.02249256456886682 3.2381321065703625
870 -1.8856919178398301 1.3057313848861076 1.8711406107500987
1089 -1.6331739223609167 4.343338053095528 2.953864077407703
871 -1.8867680248658545 1.2484758996807106 1.0827739839395636
1049 -4.9538956703199375 3.296607709041126 4.08334322654662
1050 5.964181686433133 -0.15167076191829088 -2.082833191342602
1069 -0.2524078433970295 2.428876660202928 4.12114441445278
1070 1.776653495447806 -3.459295034290977 -0.71306931916251
1270 4.763614766356511 1.0614734320204116 0.6651508484571094
1071 3.7418541867201163 -2.7838538390333634 -0.8625889297251638
1271 -2.371499650729176 2.613108725526825 -0.9175780244822176
1249 -2.3175064227889206 -3.0809317134725447 2.023454941173685
1449 0.21330081155347141 1.5845163747626114 0.5418405806467816
1250 0.17218983722908018 1.014926753535959 0.11676186673868094
1450 -0.08962038901891814 3.094109693917182 -1.2522740836752908
1470 -0.18429468240054225 -0.8928068041459641 -0.9712229545689796
1670 0.5013620032935087 1.421640458723131 2.9811392882409486
1649 -1.1302013816040943 -2.053073568875311 1.1362172573490454
1849 -3.7746968856494783 0.9179203323606843 -0.02225840091197219
1651 0.4362330598027031 0.4483624254491306 -1.0573210065000107
1851 2.1310470789578124 1.8030235657971123 -0.5133801561562639
1650 5.403604658407742 1.7987775577952365 0.40505864217999277
1850 -2.1530340239206627 -0.12354864755848827 -0.39536447606509667
1870 -3.1034693933490014 4.043436531662159 1.1920537326005995
1871 -2.520264940948253 -1.0716752443595383 -3.7731482645843326
89 1.6809928848752904 -3.8664596655019254 -1.6453426789056271
91 -1.184572328377575 -0.44789706136530294 -1.8298325280798626
90 -3.4052886023844104 1.1915548938754603 2.4470001151666945
110 -3.6484922523273706 3.331215930595087 0.372480515705337
291 -3.7433487715815055 -0.6322754496367543 0.1730488389643937
290 -2.2164572387074224 0.2166365585886765 -0.5561427159509834
310 -1.6808440265558682 1.7312890902106033 3.157957829037436
509 -3.6932678183426395 2.969382900577869 1.0497533368177514
510 0.1773871990363488 1.6877321962478629 -2.8198914719460078
529 1.8485744709555025 1.6331223120348268 -1.7372947680505921
491 -1.943034745408244 3.852383423161674 -3.0099745335341046
490 -2.474116140885233 -2.1418619963025876 -3.2157926598884354
690 -2.112617379737108 1.3964115298119186 -1.0277279596911377
709 1.8820657189564225 -0.7633647434678545 1.4676215484556148
710 -4.389986601712946 0.8414306907569815 3.0476049463741854
909 -2.8772636913676735 -2.8838469109830434 -3.535551949523086
910 -2.5673346853688996 -1.34124205979141 1.6382623060908397
711 3.996175524922549 -1.5538140039586978 -1.082258539797061
890 3.0823774443261076 2.8657396853567727 0.7530564763292552
1090 -2.917781289139616 0.27374912571511933 0.642597985912454
1110 -2.932100050978661 -1.1156659504688857 -0.8494665851222643
1111 -0.7134763638001022 1.682484257255678 -0.7875916527885651
1131 2.513215358074869 -3.281828292755513 -0.8954280346401539
1291 1.8095678578581829 -0.9249809484869433 -0.5609181835495013
1290 1.71757559993062 1.185737870443587 -4.749761452543763
1310 1.1060499766982896 1.7745301162866836 0.595086650829532
1510 -6.188018121298524 3.569268479531145 2.137859553780633
1531 -2.503816788806567 -0.5436511117078051 0.18279885220270417
1490 1.2720845834682415 -1.923778916647113 0.8113041708537405
1729 1.5543104505915664 -2.354153737277071 0.9503927046767423
1489 0.3667211670648467 -1.5733220579310074 5.293217108557425
1690 2.152443955180323 -3.23434316378384 -2.404960479719228
1710 5.292598272152292 -0.06972445981283734 0.3415932533618839
1909 -4.237282304411059 -1.5658513599696586 3.7012993095450866
1910 1.3596506895849474 -0.42468144324154156 -3.895748287816798
1890 -2.9223991050907845 -1.4474806086617142 2.8152127904269943
129 -0.49536665905817046 -1.5255925035664446 3.9140194306092417
150 0.18575727833636696 -2.295748751568195 -0.292733678652125
151 -5.034269202563822 3.872707810783017 -2.0609038042539254
171 -2.534786687296053 1.015738712134065 -1.5227070549003234
331 1.3237823437893137 -0.13003436959332346 0.5879466072832175
131 -0.47894857305493604 1.3618571850937897 -2.6570812059281144
130 -1.847462200843125 4.250846764186466 0.07129864686476553
330 2.7876850228600047 -1.3607488773445906 -0.19553019812225736
350 1.6959337263816718 1.2171429693747824 0.9037160379120729
369 -1.5072387430068874 -2.554261289239387 1.4290277047319648
531 -0.04803635902030529 3.2379431673799743 2.119724336401622
530 2.4143282974830202 0.06380475638091491 2.752124438164458
549 -1.0228123235091822 -1.886175649236904 -0.4730806841640842
550 -4.122591728641017 -0.870976620160609 2.3752718290363157
749 -0.1289981803897903 2.3573868920368013 -0.3378509383412449
750 4.653428568635588 -1.811677530696999 -0.40407131073574654
551 -2.1205914358604003 -0.575787346766969 -2.6114948267915485
751 -0.385083774576514 -0.9770726289326264 4.182423034263709
731 0.8138932312949607 0.0749139439791562 1.0884975052453136
929 -1.7125429498858398 -0.5385665811730913 -0.404711857866362
931 -2.616436862362387 3.136093630230106 1.797000062323236
730 -3.4239649678856057 -1.9044265396510924 2.0054961744382482
930 3.284621674973723 -2.653303913956023 -2.250463261330324
949 -3.4841899645217027 0.7405865916220454 1.1533773603878918
950 -0.9381975212304675 -1.1306984774395021 -1.136715267463851
1150 0.9175507311688834 -2.2804505449294625 -0.5527187602377335
1151 4.620993357605517 1.127621316273471 6.385111633403281
1130 -3.3503262408547907 5.4451946242920455 3.2965400281431214
1330 4.032182335486345 -0.9666735732947209 1.0371370213117415
1350 3.6261315635697415 -3.4773794777821783 -0.5501499523981953
1351 -0.6903677581824571 -1.8749057570289065 0.7161305335811408
1371 2.409864340199436 3.425985864926677 2.117936405037705
1529 0.7769737657121849 0.5242077639757637 -1.728358055452218
1530 -0.9092687224356473 -0.7398405650822517 -4.101532167765925
1549 -2.0715919872754855 -2.1294742326993865 2.8178419246513586
1550 2.7414147140804497 0.14496237422598038 -0.7795923830760242
1750 3.240112750987665 0.5943480909479377 4.70661499483795
1551 -0.06317576210141003 -1.430116472897482 -0.2335537965249829
1751 0.14704222637640915 1.1526490821448498 4.584856855289497
1730 -0.301683447526521 -3.779204217231536 -0.380958984348876
1929 0.8413812930044585 -0.3225418112809861 -6.175542560405382
1731 -0.6645051715928364 1.759503715257376 0.8975951827847094
1930 0.5955231123581146 1.3324685147565523 -1.1865326408980028
1949 -1.1664392595107667 -3.8650846898933247 2.466440183054201
1950 -1.968354989041979 0.811829073321367 0.9090128084731292
209 0.22021110631360957 -0.18789214732728776 5.337021705219226
170 1.1858839467516424 -0.18707210062612137 1.335313642578344
190 -1.8374691874498683 1.0193468738506368 -0.9499631884160704
390 -0.010363566914173394 0.2157585677823601 -1.2925626214407093
391 0.5125143223657529 1.4806877724887906 2.1465816555620574
571 0.518982143923021 0.17717038237863897 0.4134267946842652
370 -2.1198013169961576 -1.466490798329102 0.02691485648048108
570 1.5940689259062926 -4.23179015139826 1.2078870246547937
590 2.024006514712326 1.2849208961653429 2.9258577093830658
411 4.158882436224525 -4.632864335313262 -0.7486126383102196
611 -2.4628026156164777 2.469764618187747 -0.5945496228177456
769 2.921381187080984 -1.0813413209568488 0.3318975678571192
771 2.4766390200414996 1.9957733004079934 1.128239039650778
770 -1.40083675319256 2.810415952464676 -3.2707247632280847
790 -0.36641944126528225 -1.6890132699901264 2.020398422038678
989 0.7468837719078143 0.3903739332901291 -0.923950049059249
990 -3.037488319076607 0.48994687131170095 -6.020497495397073
991 -0.7987761940182686 -2.189703318234238 -2.986235691680729
970 2.1668780042496256 -4.9090949138152835 0.7793921249110115
1209 -1.07264365516519 0.9744341691098785 -0.633642431528026
1170 1.181029904075604 2.9573774145550953 0.15296939483453395
1190 -0.9321844104141321 -1.8189984432542459 2.2196497282025014
1389 -1.514182675990906 -3.090457904084134 -0.17106264182177408
1390 1.5053138743628003 0.752936003254831 -0.45817376980902424
1191 1.7516259695625511 -1.667470391598077 2.3940513133269827
1391 -0.495249663909359 2.6361851752313172 -0.8962556491864258
1409 2.2378670572632315 2.7772589550797835 2.4802785418976208
1370 3.8081407577838102 0.22022305103744402 -2.0246780026399698
1570 1.6492360376338182 -0.19073221689597972 -1.8195750250030627
1589 0.5415707622963397 -2.0723786689814316 -1.0616576855064188
1590 -3.1661753945356352 2.003490375803494 1.3155002606833446
1591 -0.35971634300532557 -2.1708401239087105 -0.10915021505058459
1769 1.3855877976899764 -0.21179539475919304 -0.17239495021969042
1771 4.298231114900924 -1.5694752203301907 1.5413142202251076
1770 0.38253872329706207 -2.213104287765265 -1.703894596630303
1790 -0.3678890582711299 -5.127767206754082 4.699886350722566
1989 -1.3149339661492894 -0.9243076831142346 0.9754694046195436
1990 -0.6086734447345808 3.1719499108163287 4.3687473281088485
1991 -0.4889549856709672 -1.0615604801722422 5.4861176130372815
1970 -0.2127237469777517 1.8862352134346307 4.372288906194031
32 1.852498586210022 -0.05610687218405399 -1.5969684346641801
12 -0.9295394840068839 -3.5947215943449415 -2.5325291324513213
253 1.9837726190418246 -0.2447456125382049 0.11070994504597209
231 1.5998340400666926 -1.7381830648883634 -0.5505924967410476
212 1.2434918580880252 -0.6931214005930092 -0.763054145222208
232 -2.3384917522021413 1.32362720227089 -2.848085463861871
432 -0.976568644162567 -3.140462474918218 -0.7383084094638217
233 2.521759135209526 2.6488099081589893 4.532627146922082
453 -2.488609528305532 -6.051576855359192 -0.21718767647520537
412 -1.5766463217035003 0.6028536819528942 0.8223915362298161
612 2.370010466859328 -3.213111503561157 -0.10999686670577634
632 1.405258531916166 0.25981924493323794 -2.9846059976672126
633 -0.02962567532699035 -0.10664109761926517 -2.3459204792263044
853 -3.9002991761625827 1.7035935652201342 2.5658245374803377
413 1.2312310571998668 -4.161494358214206 -2.4239889679325057
812 -0.7653937830421265 0.7955676144438522 2.8983144368997333
832 -0.137477444969152 -1.822938738960127 3.031842459165935
1032 0.725498398052129 0.18872946198320548 1.2093465276972515
1012 1.282447502074496 -1.0519419776329608 -0.31704052612050726
833 -0.37869463951937926 -0.6552428608851825 0.1923210676518022
1231 4.448406247391103 -0.6883203865102744 -1.5277164495612738
1431 0.430888283459277 -1.8476414160789194 3.672640211832543
1211 -0.8835563740797445 -0.23622860581181712 4.012461339770962
1212 -1.5397968190070925 1.2027807107023896 1.5449014314541105
1232 3.6077613236121815 2.7333498530806857 -2.137242518228809
1432 -1.7225878160539345 0.0929513420023833 0.4396062790507201
1233 4.198192610018388 -0.14084683137091009 -1.7499213737515211
1611 -3.5197697683763907 1.5347297581243726 2.6669539975108583
1412 2.119868437642014 -0.6930786950142138 1.4395631049335005
1612 -4.375278790863379 0.4224220597945438 -1.2686954394654917
1632 -0.836407582356804 -1.767716528769445 -0.02593432294999104
1811 -1.0979356686440345 -2.0566443159807184 2.138869921690655
1812 -0.3059112574908931 0.5845760760447015 -0.32386577531986754
1832 -1.2828145898098415 -1.53123441248266 1.4259317178292081
33 0.7959072182256961 2.2365832235524485 1.974830577489817
1833 -1.1074622527791014 -2.011641582390337 3.2389293310040546
1813 -0.8169919464491117 2.1483605078278205 -0.7977423716112697
251 3.9953323446587685 -2.1256668916810257 -2.124906408963825
52 -1.2236235378907143 1.101698758184294 2.615671312456448
72 1.341316957896762 -0.7602138658815505 1.886774691709731
272 0.22710668359343703 -1.7751209058938608 -3.3469750073682443
252 2.43984754793139 -2.5503167084525895 -2.2978643494791418
671 -0.6317158562232038 1.449190591250426 -0.16658254282341017
452 0.3788743485561444 2.290265796982913 0.4734152892491165
472 -2.1717116415041717 2.7082198450471062 -0.12043983905871287
672 -0.9210651234286114 -0.6186042845656283 1.309924824208161
651 -4.615835310247103 2.7350985279298223 -3.416583887547639
851 -3.322650974508948 0.29226451865128805 -1.1565777097687935
1091 0.5686062517562815 -0.42523453016142976 1.8770240442262789
652 -0.23901520391612122 -1.1999152597909788 -1.351342409455156
852 -0.17872508369950238 -1.4352983347731285 -1.37812595878799
872 -1.7439096582613638 0.24798568422490797 -0.528294261216369
873 -0.2633555326715894 -2.737410153235334 -3.286274234645747
1093 -0.1409568976638424 3.5450110661148195 0.5679047074006176
1251 2.1979158037403397 -3.8110401900873807 -1.274337239249954
1052 1.2974514714562129 0.41111172137622015 0.01599030514626989
1072 1.1324443311025303 -1.3655610492438246 1.0752983911743275
1272 -0.08574402861245031 0.6530170038814107 -1.4282956162132894
1252 -2.5466464458956484 1.4347956950806313 1.4752985590567798
1053 2.602956596226567 -1.9615703377444955 -1.0038775821751704
1073 -0.5398753975501006 1.58479822299332 2.762286208212184
1451 -0.3051769795452868 -3.171062826194801 2.3165954336709644
1471 -0.5066566274294858 -0.7977677183017616 1.3630753242436189
1671 4.524240156536089 -3.34212336469523 1.6753486184211046
1452 -0.06495319191776039 0.2911998917635181 -1.598908620029975
1472 2.3557094568317147 1.3843990817335494 -2.990852719051159
1672 -2.351467992967112 -1.0032246496803137 -2.8333093646499483
1652 3.951621715633161 -1.4106283345280302 0.08529677474819018
1852 0.5061429776826152 -3.199839526276179 2.4505624924783933
1872 -2.6558541328577467 -0.7505314577067039 2.865950863967719
1853 2.846735982646394 -0.24705584307112777 2.924194944196844
53 0.521316219537948 5.6786792246704145 -3.357958903482217
111 -4.129545809961927 0.2994425209976589 -2.5772675718966793
92 -0.7286159735344175 -1.6644243831217207 -1.5966685544710886
112 -1.0130877464380499 0.9863339162437649 -0.29266437723443867
333 -2.641273447541358 1.133341562894818 -1.622417823822618
133 -0.6986834034089567 1.8199987278410636 3.3284584190514046
311 4.770541361608407 0.18952780753253465 -0.4933373073862807
511 -0.1487168852075774 -3.534627470742464 0.3753715378469233
292 1.768813056601911 1.4217372355821374 -0.06014629809471462
312 0.9468555200615766 2.3454917039240994 0.6369427444498541
512 1.2204789505988267 -4.063947409741963 -0.32366652145072883
293 1.2488470796414957 -0.7741536336035437 -5.811795973798833
313 4.46725256337176 3.695891229888609 -2.9883454469031334
691 -1.8630138229593873 -1.0365483994826292 0.3189631265061679
911 -2.1417683240743584 -0.9299855159296856 3.569374443021421
492 -3.420298056701314 3.3260641678369827 -3.2505630414094444
692 -3.325332065799041 -0.11577199097983287 0.6977484267116003
712 1.5601361207708184 3.0935171559746544 1.7336751376343
912 0.7081036821797311 -1.2600660044475513 3.2385631680407174
891 -0.8933263292165281 -1.2337585111815823 -0.039805762381525014
1331 0.5672106142850032 2.8000373124712805 -0.7837824490156714
892 0.4856431017406924 1.7972155319972212 0.40366528139428953
1092 -4.238271937515996 -1.1520981416235638 2.463535722203861
1112 2.6037331748165813 1.4357621305598962 -4.731694382174982
1333 -2.064378898101766 1.925829945490201 -0.02936024201326886
1311 -2.5900733499246327 -0.48408998108478457 2.777572807886581
1511 -7.418796328128302 -1.3712501044329743 2.174073653703175
1292 1.5250134966536724 0.10457776185601696 2.9245405429374154
1312 2.664620726679524 -0.44327657298548045 -0.09517602136071386
1512 -3.0911164726526112 0.6199541387957248 1.8326083484981242
1513 -0.02042387581874053 -3.7495609631960725 1.7866294985690072
1491 -0.31073000619583724 -3.2408729849728304 1.2351235517723569
1691 -0.6910574946914778 -3.62940689778338 -1.0485557118118156
1711 4.489247393024004 -1.4385402745091356 -3.1928005141374958
1911 3.1316064433051642 -1.4812572619473467 1.4237819506146103
1492 4.3776594003603195 -0.7916313869735988 1.1857680058899278
1692 -4.209663244632178 1.4449426377938397 -2.278585924098272
1712 -0.4005683973165114 4.487832898618739 -4.92484358238673
1912 2.1317330756672552 2.4589633661825774 2.7793112685521524
1713 -1.385610691225024 -1.4586937418115702 0.1688417627275597
1891 -0.05352384161298963 -0.30677867438886625 -1.2034455457096973
1892 -0.594329193495873 2.2747287469272055 -0.07685568632145195
1893 4.834111248607996 0.3469296223808537 -0.7365742761357952
113 5.1479158665535225 4.207672707277755 -0.8769471287050022
152 0.39898553875299925 -4.350800955902335 2.623799108728974
351 -0.8068319820100993 -0.11719117867010093 -1.0037887140268442
371 2.8662282867779676 -5.412948840984566 2.7224071944497146
132 -3.9515406504248554 -1.914785410405658 2.923583402478475
332 1.8070318411676 -0.3542457300088035 -1.8974298474501332
352 1.9201224356242665 3.308408365075006 -2.2349006736305443
532 5.900966736945964 -1.3255170680926627 -0.981235655629555
552 -1.1066287230615917 1.8438482790173663 -0.11188964485712362
752 1.5273997053143102 4.380067560200288 -1.6644970366220704
533 0.7167413490659313 1.450964338027167 -1.2680684338325552
553 -1.894434518833555 3.08448026745318 2.3569723645182967
753 -0.36874134745102966 -2.3110589428195962 -3.8571098251075995
773 5.5560519261434616 -1.3504754870992337 0.6021430550877003
951 2.224579541417982 1.1942262220714928 -3.514582570079452
732 -1.14138983525703 1.955253961565491 -0.07286228537529944
932 -3.901499891137189 2.796101419710891 1.0886935658350658
952 -5.003166841774446 -2.288808225039841 -1.2138181988237018
1152 -0.7641381777162201 2.8678335176702654 0.9763641895671066
953 -4.653323104909562 1.1896200599860058 -0.15367112248675843
1173 1.4230961924828671 -1.3892126065019332 1.8629788341801423
1571 1.227748247521952 1.9031380123753143 0.9083908806437222
1132 -2.6431000743421698 0.209481035999766 0.404822851767029
1332 -2.787886821316651 1.9322524091970203 0.47011575685735385
1352 2.3974479603729963 1.0292541708910607 -0.7612266619195905
1353 -0.4138431574325339 -4.411297600961361 -0.6183692845421583
1532 0.07829783757272393 -1.9025770964804842 3.473967177606654
1552 -0.8425649584269015 -1.624996149874892 -4.414695959561939
1752 -0.4187035906819034 -0.6623541536332229 -0.45823952849958094
1533 -1.2499619599749279 2.7431161429335336 2.3706452414000134
1553 0.7007529905912909 3.1849717664932595 0.2188835350885847
1753 -0.32742637379356854 2.56167132821241 2.2648009022127393
1973 -2.865381431325863 -0.909411243333572 -1.0016722374346922
1931 0.5854918709700364 0.28895569518643804 -0.08187553583277091
1951 2.771610994718284 0.6442295281156135 -1.669263262087303
1971 -1.7826137520161744 2.6707547369051907 0.199019137269871
1732 3.731270660765685 -1.095229689924709 -0.02743592392863624
1932 -4.26834589483737 -0.11613270875816435 -2.5489816662406923
1952 -0.06271391725589125 -1.5581853154469756 -2.77325541945984
191 -1.1875504528601686 1.2629078038729173 3.820488052150828
172 -3.5469010309529883 -0.8334902693616142 1.1220545139658282
192 -3.4671342549008384 -2.421073556711878 2.560427147037557
392 1.2498258464523488 1.0916243836385697 5.378740764536048
393 2.033757232809902 2.548158325119563 1.9247603676628624
591 -3.1123461345023533 -1.185225889295063 0.094257920534391
372 2.1173485930622933 -1.5242823038839077 -0.2294855534984052
572 3.9454360780225657 -0.27695078487259844 3.5131639958376173
592 0.9195879730927563 -0.6300361685461341 4.200651297463319
573 -0.26851845253701945 -0.5253214166656393 -0.04075703307054755
613 0.49616798984281985 -1.2816749202087983 -0.9305800935635117
593 3.7870165133378886 2.5451626689070466 2.3965364354443284
791 -3.883387777779604 -2.4589135882169457 0.8348572776704954
772 5.506589548600128 -3.126952252710346 0.07217330975330553
792 -0.4430436793015492 2.826313523281382 0.21898194385256067
992 2.4182408477803317 2.949486059286289 -2.340721526117225
972 1.3385607733365432 2.2437802065050025 1.5013483373436975
973 -0.8204199166881904 -1.208054671532146 0.6540160602450384
1013 2.4118409852979954 1.595110022320832 -1.4498024449956413
971 -0.771361696053418 -0.20676925049285733 0.9136403650230146
1171 1.6054937099302256 1.656578282859278 5.6880812836198125
1172 1.9309860598268231 -1.9429259732576398 0.6619298073745019
1192 -2.7401499980771407 0.36908023765635317 2.2689335041443215
1392 2.6736713557975063 -1.3488969610789163 -1.1313826212449651
1193 0.49982454976068147 -1.2651714116949684 -0.6234822351162161
1372 -2.135342491735267 3.3470059049340484 3.5539908786960903
1572 -1.816974338630605 4.227216134676093 1.6013000116205343
1592 3.4409694998257687 0.06898690841895991 -1.6807471309744684
1373 -1.7990473409279972 -0.19100337292246905 0.4517666493735141
1613 2.307221696055004 3.0519294319022388 -0.40151640327169014
1593 0.2594249582134339 -1.1808550316821498 -0.27434032921776547
1791 -0.14725553758905274 3.890789234111119 -0.37549443529862997
11 -3.5604923192872984 -0.09810818890105416 -0.18022562820057864
1772 1.2573511219670568 0.4632038499364485 -2.0560973506711777
1792 -1.3058277392879636 -0.9620867979738511 0.7388681862474635
1992 -2.0355936578797484 -1.66202856733467 -3.512933653571089
1993 4.090799745312977 -1.8831083574197962 1.6835723806053606
13 -2.177467351271858 1.3771243859592344 -2.6977852203687718
1972 1.7193454208284076 0.6470243346990286 -1.4866432541106815
193 0.31012918654971106 0.09181696202324655 0.914062415132224
34 -1.5125461087643821 -0.3332613303913148 -3.3671977153907293
14 0.6616325683028715 0.45315527998318633 5.902590148153449
214 -1.6854743390323512 1.4998128165724152 -3.1542407807220485
234 -3.1606387575656485 -0.07963281729375968 -1.9861806083646436
433 -1.0786174782498574 0.39377380953677993 -0.8103965920314368
434 2.4493779008511374 -2.7508464607986003 -2.186997357143389
213 7.164247891248118 -0.6979858931881221 -0.3766053716658267
215 -0.5048401701706813 -0.8091754681351226 -1.5225149886130984
414 -3.879975304504769 2.5114853802706563 2.832288828538683
614 1.8254937611614688 1.2569731774041761 -4.136291479327278
634 2.4384924633790988 4.111313828704091 0.6614003538219954
653 1.2875991426865558 -0.8366473025902004 2.968727051829722
635 -2.1385094650213743 1.9370270244444179 -4.124624975623749
655 -2.398092013903453 6.798176064053032 -3.9274315548495076
415 -0.8703152414700783 0.5616103382571035 0.027768065497753583
615 -0.24833553534526231 -2.5528792506049 -1.1530452639407234
814 2.1567271577661975 -3.845970387033283 2.087238623962239
834 -4.169735702667909 -1.1283344335515602 1.1654379833230457
1033 2.9882471237724384 0.4845008315342044 2.218762221896292
1034 -0.3518931021543611 -4.193563028695001 1.1312251734060914
1014 0.3392450401661104 -1.9647914530159827 1.8327569339153247
835 -3.0206161559107634 1.132769588089349 -1.5431441070951877
813 -3.063149327739709 0.5553888663139943 1.1689266095408224
1015 -1.0938323494827173 1.627894885228458 -2.3379168007299422
1214 -0.10461807330898172 -5.871571229741363 -5.778144220025065
1234 -0.7339504912587471 4.709215560940266 3.277217861193372
1433 -1.4240807219620986 -2.769209752607747 -1.663589051940854
1434 0.24175682084094102 0.7389908639138779 -2.318145210011999
1235 -2.9571926108989386 1.0366968390769318 -1.6070485644881412
1435 -0.9261482001968462 -1.2213224218728247 -0.47486573450384095
1455 -3.8376551639755028 -2.5534043613634045 3.8907162826392137
1213 -2.2629303229099365 4.196653661689648 2.301191514038102
1215 2.86342058633218 -0.874186655711191 -3.7783060251542864
1414 2.0943466734618457 -3.6466687032315166 -1.3485152949925774
1614 -0.7902368043541157 2.279305669639112 2.731885077340613
1633 4.0120720407001045 -1.7095836158226618 -0.7248745683557508
1634 1.322827028509019 -0.9033465628892511 -1.9156267268884601
1653 1.4676993262776166 0.6872678471362064 -4.695909493865936
1413 -0.5016221179296031 0.44634031535080465 -2.7997714961517883
1814 -0.5797693258688575 -2.931350571151804 2.43437384923917
1834 2.674076241248747 -0.347572972289419 2.070903748496694
35 0.5336930241620721 0.8766915545623599 0.933636701141838
1835 2.4170857094604288 0.5107295446932071 -1.014824990915735
1815 -0.10223079104249563 0.8138305093087127 -2.609297912900205
54 4.411075508118066 -0.6369186007403554 3.7164896061212245
74 -0.1778107089557476 2.186282184346815 2.356038764049453
273 0.49496166751077575 -0.5515078260704479 -2.4454737905874153
274 1.5762426489753634 5.719355726774291 -0.48046874952353436
295 -2.1687475775760983 0.4087261002928304 1.9942079435711246
73 1.8504729031184448 -2.5164510101734585 2.261701691384562
254 -2.2986589173146066 -1.9418874148311072 -2.453220022619322
454 -4.481477958406658 -0.2472028498503082 0.7336438960221895
473 4.622569924030712 -4.112390435454133 0.5276046880664608
474 1.352215944399871 0.8378962556681138 0.23467709491021954
673 -0.44231083667866555 0.09342799495605121 -0.54407593761989
674 -3.3942594257918186 2.0272721159644704 0.8835077036527414
693 0.34862601199886567 -1.2667182579262077 0.3192033315568121
675 2.9616387115662732 1.6358079863147836 1.0716302421983928
695 -3.201546400457017 -0.2315813655992263 1.3053988660255127
654 -1.558260564855015 1.2214517430958738 1.4656985534624483
854 -3.4851490557921774 3.3704994302050517 0.46115541226936657
874 2.694588318118432 -1.7705656125371392 2.012105016036099
893 -2.518041782767222 3.0050408374543798 1.2023148227232985
1095 2.1064930541473137 1.4599211603067939 0.43001030518724453
1253 1.8308829161984284 0.3096835160335236 2.269196176692805
1054 -3.889790376268693 1.0612880153899173 -0.7547053026219641
1074 -0.9742122801117765 1.4445948567722642 -3.220425163256227
1273 1.4821473071234805 1.267753478843387 -1.039911218295085
1274 -1.2335665786306635 -2.802643607686371 1.2692714415741917
1295 0.18682796790307424 2.8876283387441566 -1.429853778661615
1255 1.5171488289684842 2.2731158213369627 2.3971020456739778
1453 -2.680539818947496 0.3493719018254895 -1.5687593711056123
1254 -0.6030853955016469 -0.6323055686695785 3.4576956973096467
1454 2.3738972495677038 0.6588082412671245 1.508550102901651
1473 4.856288831513552 -1.1321360249494448 -0.9501384019815553
1474 -2.014170676658625 0.5096515800086502 0.6385801721687866
1673 -2.2271977176995605 -2.1479528365898766 -1.4754950255503936
1674 1.0153487362942468 0.2674903820089592 -0.41153067144009725
1493 1.0070222673761118 2.401349786780159 4.64462816805696
1675 -1.7291588079227467 1.6198044806178948 -1.00773086052245
1654 -2.530980594571542 2.461211013435692 -4.393866246116961
1854 0.30188729253953456 -0.13795185827418668 2.0119958583109496
1873 3.7621721740029956 -3.5913417799804916 0.9047455274002547
1874 -0.7298563993383637 2.8059925715837886 -0.23253050768986827
95 4.501974521974547 4.043866974562814 6.4236443476515594
94 -2.3084091657618755 -1.996277288017322 -0.2203930362501693
114 2.4350174171925336 -2.4657707711738612 3.4865880233425783
294 -1.8373773861764187 2.3085812336642317 0.20347910650396706
314 2.1552349860049724 1.709808529838034 1.2322904301251545
513 -0.8232647870570904 1.010503099122441 -1.2708232207289518
514 4.59617845366821 -0.15754241650304376 1.1211885023475527
315 -0.1318949529436836 -1.0702261961373694 1.503697989930882
493 3.7467476570868614 1.7806201054137085 1.9158505186100159
494 1.5760228769877853 -0.292955277507198 1.2439152598504335
694 0.04875632004830405 1.7212091539422036 -2.555340379852744
713 -1.8880116575805004 2.1516496983783044 -1.391273339234649
714 2.0673867517216853 -0.1631016680405558 -0.39908627915505807
913 -0.8856192434871424 -2.7329084360920985 0.4793430764454111
914 -0.8709388382860935 -1.1264045446728743 -2.466643698427468
894 -1.7670838887242566 -0.5838295013440977 -2.8816364305146593
1094 0.029756597204435086 1.5030944688061798 0.49068737827247333
1113 1.282155009803457 -0.573188102706683 2.2477800924473312
1114 0.6404320951756957 -1.3451592169042623 3.618805647357819
1133 -0.507988823620049 -0.8353934464191672 -0.20077561793858958
1135 -1.106320682454269 0.21000222637992874 -0.8976517416955576
1335 0.0863035530584904 0.5689530238266616 0.9877281782709647
1293 -5.42834488258136 0.5317803370631201 -1.0370702853297011
1294 -2.229534185674741 -2.50444404729669 1.9515308145980674
1313 4.8271504356241675 -1.5111465310036563 1.8230604679976765
1314 1.5468414647358288 2.0874009274211667 3.338456111995269
1514 -3.967596504189154 -1.5666335454629428 -0.97565738110188
1315 0.6441803649341595 -0.4596894088320057 -1.4163998385736223
1515 0.5903033949992846 -3.2104403649217397 -0.6359402009292214
1693 1.4799094354332551 -1.6126601510245169 -2.14337425222504
1494 1.7668051481075666 -0.04238725116592394 -2.4541353293628574
1694 -3.234791096129723 -0.053215842841630646 1.3982203232675048
1714 -1.2839847334675667 -0.868093687739751 -3.1359434117685288
1913 1.585400910472463 0.49517917057424815 -0.1036190620300088
1914 0.5207714735717379 -1.169247467941805 2.001973798696763
1933 2.4793186724292275 -0.7922538089256995 -5.0525342261896276
1715 0.06673242735632519 1.2353503389421896 -0.7440807289974146
93 2.767753769192766 0.343697333572405 -1.112815712343609
1895 0.5470495454312024 -1.2159427078866194 -2.773798098389303
1894 1.9433122010494597 -1.0240747637001228 4.586091072640325
115 0.7380119972703822 2.5969881437416484 -1.357058789607437
154 1.5896305373899504 -2.17976588605578 0.005180123631498104
153 -0.30992256550242836 -3.9075823555556846 -0.9012544470484976
173 -2.352286989177305 0.41082617784616765 -3.137355184365377
135 0.28278526361011463 -1.5597618570570546 1.3913072882221833
134 0.7538974398253533 -1.9304995224387296 -3.0838305509576296
334 0.4814388194016722 2.880746052757454 -0.42593499182496625
353 3.9363608563526036 2.6298048032212327 -3.3349379762668696
354 -0.3705325965851118 0.02747417507639736 5.027391241090836
355 1.8704028150101732 0.5909432411752363 -1.7222222630192596
375 -0.7767078519677005 -1.070628845438365 -3.13866693488427
535 -2.190559585312903 2.7722660094494875 -1.9727260522171761
735 -1.626186061920428 -2.1751666226817523 -2.8275171268932486
534 -1.177738483547932 1.0094646753898227 -4.301252019492755
554 0.5763181238510534 0.4009449354981603 -0.3845057983926928
754 -2.180791235963758 0.4278989144121398 -1.701757462712847
555 0.35040385348402214 -0.4258419542039033 -4.04264159050026
755 -1.740696692274006 -2.480049250255418 -2.0017422555003064
734 -3.511329925380345 2.132209226034812 1.8263565175984724
733 3.6729300817028383 0.9963668278425002 -4.3328308125353905
933 -1.643511951211913 -0.7947195696596793 0.3336938246990806
934 1.6469768446361412 3.9294561823900613 -1.493526895631524
954 0.33975106630525165 0.332095342417675 -2.0393772892421707
1153 0.016483680042061386 0.40361306135107117 2.823513075690687
1154 -3.3099359086998934 -0.44929112862507964 0.33604184482504806
1155 -0.24750031538851444 -1.4177333316661236 -1.3596415199372562
975 1.0268339222524412 -1.6154875456040063 -0.8328734400541811
1134 -0.37944434774548624 1.1556742997868312 -2.464286511035822
1334 2.4852532021471463 -3.1987414784154713 -2.340708409676457
1354 -0.4245982438173674 2.6994592607880046 -0.40697857240530394
1573 -2.384599910491596 0.20357544378441242 2.210444598273066
1355 2.2040292082819044 -3.6285899662915653 3.7243395898846052
1733 -1.9754988069742336 -1.9686013167499363 -2.328697099024497
1534 -1.4449485388246672 1.292248708051714 -4.012036312003468
1554 1.3736542367117852 -3.3501630153200423 2.7239543333247913
1754 3.164541363315798 0.3473031012248851 2.3282369622695187
1773 -1.776705744506765 3.687924140783355 -0.37086867085129677
1555 0.08196609402472028 2.0464501869540133 -3.483427991556039
1935 -3.8863507988309838 4.596594322455667 1.6899806352905817
1734 1.0548096277732448 -2.812524382924451 -0.10001773890614805
1934 1.466478441019167 3.9226088322082546 -0.7202875532339623
1953 0.8216367578041135 3.5095684485848326 4.800320210920942
1954 -0.07070367223552033 -0.5139934029709536 -0.2701916561369143
155 1.501441791287196 1.2665459152503589 -0.6676798007028348
174 1.3996139373005423 4.507925942306629 1.5611311393462934
194 -1.1515205414742928 0.6198536116417086 -0.5409388531575567
394 0.06587903530929837 0.9464561104196455 -1.87634331111973
373 -2.466021688366539 1.5359491804349332 -0.39359923790812235
575 4.026144091800546 -0.666592210983045 1.7252513891682808
374 0.8460173690897156 2.1468706698061455 3.2061808489307397
574 1.606340398838319 0.327320235467401 4.401371198855765
594 3.278387580160212 2.0449842529916227 -0.3701292222811038
775 0.3531288357255334 0.875094278233058 0.9832929982732038
774 2.0185847787161824 0.5162070074390922 -1.0672428843304167
793 -1.0259719127470286 1.432265990872436 2.491234215334664
794 -3.423419419384745 1.8998307306255147 3.457382273627255
993 -2.157897599358668 2.0130346659361984 -0.14883877637661996
994 1.1525810205524791 -3.6776703028273707 -1.1393792717963003
795 1.8434224156130785 2.7958543094470762 1.4124837799725012
995 -1.3190856469685899 -0.3311201436907793 5.460197936643337
974 0.8720934310102203 -4.222599270102783 -0.4205191331013822
1174 -1.2130614825229153 0.5539671866842554 3.101673502950035
1194 -3.242858804703421 -3.206289704849324 0.35656329962420247
1393 1.9908504489919707 -0.25481714404028794 -2.3966451201792767
1394 -0.155704622826389 -3.1403575594324438 3.8645642314389614
1395 -1.8563991530592758 -0.20872477579989374 -0.12771387185877725
1575 -2.1228117907603647 -2.455643570351289 2.763885147300968
1374 3.3140193277390915 -2.9392672108853826 -0.6694972709303781
1574 0.17961871515237515 2.3367695995005433 -0.23767835465381532
1594 -1.4022802972497428 0.5582940456900949 -2.4469504093975605
1415 -0.3412423287005965 0.11548746004175321 0.7056807509332297
1615 -2.19215503956522 -0.8457027758852663 -0.783670609591297
1774 1.667862437192722 0.6628333492060238 1.2911551439023408
1793 -1.3228865610145657 0.90993030647989 -3.485433265266528
1794 -1.2509015672247328 1.970455396110885 -1.8773944455941607
1994 -0.19081572730143356 3.918466277937834 3.0460874536546267
1795 -5.305410457182411 -1.493961017909677 -3.0441804517834505
1974 0.745567191543041 0.30306580773596375 2.0705108831555563
255 -1.3214345164954844 1.5994572472438486 2.4735046982223445
36 -0.7394743717868814 2.4718039367856863 -2.984786024628969
16 2.1890155003236678 1.2988708089960872 2.4995766262242953
235 1.4714183940600383 -2.0788690335462006 -2.0392295932009934
435 0.5081949696923114 -3.9824667204916264 2.2101629020675593
455 -1.7187695950702386 0.28607517756594447 -4.196563851788468
216 -0.7557613666126376 0.8720163551595813 -1.7113625465236475
236 -0.3512973954750763 6.638983058859459 -0.4204458921968828
436 -2.257369884286308 2.2908245584811393 1.6175453147553016
237 -1.2289508184586078 -1.2785639860811473 3.914830347071554
437 3.5605258078971027 -1.5499338292048608 0.009736964901380752
855 -0.5195735741813405 -2.255942321254428 -0.7347709107506428
416 0.1762390421716389 0.3303419281763131 -1.743977430628212
616 0.6868849081527245 -5.125783136497499 -2.51463093144215
636 -0.26878680192530163 0.5870101712075189 -1.4602858354887314
657 -2.776350343364754 -4.441286207215901 2.160707087185917
617 0.7881690334439202 0.7617400817280557 1.380066639118588
1035 1.5072894565528998 -1.3330525101141213 0.7100902204833823
815 -0.8288183277728072 1.283776970515551 -2.658509772381316
816 -0.25016627589896634 1.4178851318559094 2.8883080077973236
836 2.8144391553392905 -0.22316879776650408 1.2954735864209848
1036 -4.395848603250427 -0.47208536040058324 0.8690653411923557
1016 3.155668296930131 -0.17077129844824723 1.033432376489304
1257 -5.009758966493552 -0.7636543359071941 1.7069975118018659
817 -1.4655358097386177 -1.1911691740042303 1.7711644600349006
1216 -0.8154137821665697 -2.0343774522713245 0.32552813497863514
1236 -0.026313206865407716 -0.49595216758198013 1.1691843892773015
1436 0.5216698855009354 -0.8830685965343085 3.397434210967911
1237 0.08023073734322388 -2.340217670757297 -3.298911134996277
1635 0.325983841399549 -1.7012079503477278 1.3061588217150715
1655 -0.3966739021406211 -2.865939290839014 -3.4507402064679824
1416 0.7388502829805966 -0.40502920648877677 0.37197576481773054
1616 2.5567792555991242 -2.52957582487338 0.09815291346226779
1636 0.22664145180260822 0.8017038802617444 1.0701237836522095
1657 0.9509464963374658 -2.0303237156578704 -0.8189113566850784
55 -2.4184286651397247 0.9503790528181134 0.6235868319995332
15 2.815586207193674 -1.7770847429417287 0.18791102346030683
1816 0.2170308958136408 0.034317286270186674 0.4320687576967305
1836 1.2002042148888017 -3.3198958667989635 2.929622429649035
1837 0.702012750988885 -4.194162225939551 -1.7868335654846452
275 0.8433991646465793 2.701185976284098 0.04430668287018577
495 0.5603418416090811 4.572789210446428 1.17845886790038
56 0.2969476175736436 -0.7069498674585653 -0.684819920085343
76 -0.02117804676331074 -0.40209540388323267 1.61123377747645
276 -0.5281560234704004 -5.3495266323200354 -2.7498099274231262
256 -2.025742083250323 3.6211665084402553 -1.4408274472655915
77 3.5552968336488875 1.8056186206570306 -1.9535923887696183
475 1.1880631652147584 -0.6078204405119298 -0.14040410232947295
456 -0.7415415163573463 -0.8120909539386107 5.1737070273897885
476 4.234404893288403 -0.6800513450074033 -2.2182893235889503
676 2.425380837265778 -3.4061549858426927 -3.5056876300242568
875 -1.3092508763462076 1.2921269593682205 1.2511467102862102
895 0.4571895616470677 0.6358170731370718 1.5076978637426373
656 0.890775337680542 -1.0693506038955598 -0.7163792439700531
856 3.8279894694972327 -2.1639932905670736 -0.4330851993212076
876 -0.11691631401756185 1.2067572984902446 0.9020077899533762
897 -1.812304631120498 -1.9801444528632677 -3.3620700017400873
1055 -3.6403825354376598 0.2153163802091967 3.838790709310643
1075 2.1965983939609686 -1.2172063464647616 -2.8193345010931017
1275 -0.6305253690963013 -0.7468346947539556 2.4871729837481675
1056 -3.2956448678946066 -0.7248073389697324 1.95830233477334
1076 -4.20182634276778 1.364792220593795 1.179142742181574
1276 1.005439974921026 -0.5137539935637409 -3.820320426436027
1256 -3.0534775445414777 -1.479184817954399 2.0104275680689123
1057 -0.6515264248682091 -1.7515734957672102 -1.7089390967492828
1277 -0.6625160084486601 -4.117294583593978 4.106240809861783
1297 2.018491679181023 2.9056521371711272 -0.33885178751418404
1475 -4.540143299212134 3.0296537002892427 -0.04521601922965798
1695 2.115466493369647 0.5774520533331994 3.7079543676975804
1456 -7.026681177240979 2.152172821204743 0.8104192369396599
1476 2.8465423971813797 5.317847747440259 0.19156015115840927
1676 0.04720605732652719 -0.008021004925510666 -1.693111144175336
1457 -1.0061506379027716 -3.211162656858566 2.777881425305422
1697 -1.0176757368297558 1.6595295155465672 2.343386433342729
1855 -1.8933757129609634 3.400811402590486 2.6903334167324253
1875 2.0089275049440607 0.26366442444990107 -3.9616367400059658
1656 2.984552207055744 -5.300689167475447 -1.6847401439720664
1856 -4.0586955724361315 -1.2342753615015034 -0.6721527664907911
1876 -4.582479212456878 -2.7349884292543982 2.386910787612761
75 1.9097080256672496 -0.018868869987430013 -4.025318250427866
96 2.6913673129712357 0.803160067264486 -0.8687815968736738
116 1.8817253103734786 0.03999623581926402 -2.6042273687335795
117 -3.697401638518217 0.42127819831357277 -1.0804344409789028
515 0.3282290253910413 -0.5790180811891289 -0.2186327392427427
296 2.7087003143448602 -0.5234163956839762 4.06047904050548
316 -1.4660910894339045 1.463775868648778 0.432241665018947
516 0.5742830243480982 3.6646798659752555 -2.4222086788108785
297 0.23388273457478798 -2.823308345797603 2.7753662549938896
715 -2.524894896823681 2.3678258807732755 0.7287879552129101
915 -2.377940911833056 -1.6817206533763474 -0.958588878163583
496 2.1863750780229583 -5.379297987079594 0.17663760257650282
696 -0.09641508753221815 1.0088117281793914 -1.7687873806440764
716 -0.7880176016574915 -0.6831358332486529 -0.25988974108162516
916 -2.557516545937189 2.37027938136149 1.7203050867935519
717 -3.7645563676787077 -3.9734240209268994 -0.37766293340485185
1115 1.3643462050676478 2.1579989784562135 -3.5992325759688066
896 1.6496789827859346 1.514356048578547 0.4280852101481638
1096 -2.413926219193279 -3.909793558199614 0.1253312841873515
1116 4.424769714021409 -2.5183171841507015 5.709392596410985
1117 3.319840860640567 -0.16470596147411812 0.4315350809357048
1137 4.223126968005607 4.991142353401458 0.5418594560248597
1535 3.458192584700267 2.9287144570602632 -0.21569483878727147
1735 -1.2515184351799358 -1.4976490920766623 4.286699669368066
1296 -0.4545387909445526 -3.2228257946877807 -0.04384832845164279
1316 -2.7775506381575177 5.128193281263868 -0.03911247775694654
1516 -0.5869695873576228 -1.787119861903072 -0.8859896975161191
1497 -0.29460324923188047 -0.0004074878771013623 -1.4750727617942199
1517 0.03195779162566329 -1.8272168131099444 -0.03254989425656181
1537 1.77296385604311 2.691078783981332 3.3570891634025743
1495 0.8909906253354613 1.1505238261286694 4.90822644841343
1915 1.5937127421154633 -2.26302807673768 -2.503287504436462
1496 -1.4166373860918464 -1.5722332378637907 -3.7148786223812404
1696 -0.5292665098421038 -0.029685951747359187 0.3039896747611044
1716 4.703732711791287 -3.291412203560894 1.2426009096644324
1916 -3.1793268355505306 1.860365858414254 0.0326212639171925
1737 -1.0955081947604788 -0.4192546222029588 -1.1468582359673198
1896 0.7685209665573572 0.6079761096794469 0.9035298831112972
137 5.11318118131702 -6.526536674335626 -0.43792888935116275
156 0.4063692902207934 0.7892694120490492 -1.5125818242289084
335 3.814650489739417 0.17086510958338877 1.8630746741044422
136 0.6660044297419677 1.8714521778834774 -1.8193715300504576
336 -1.6567590669648784 2.1613134624138777 -1.1108960223154392
356 -3.398912219806364 -0.09857262564540965 -0.5033057032089084
357 4.390896402283327 0.15088628804890117 3.2258054359532333
536 -1.8276573837053276 1.8194730434019912 1.5751237703092904
556 -1.53942145301826 0.8394497762174999 2.0690670921581282
756 0.4045077317266187 1.9140672332451452 -0.7238594810337579
736 0.9089209163956024 -0.9566025343919897 -0.4416878898925347
557 0.896136894372716 4.215377418586635 -3.1676901212467996
757 -2.925352346022517 1.4216988184891852 -4.4880868675077075
977 -2.047636517340146 2.2497644357531237 0.9831625647195869
935 -2.390148486278628 -0.5917937526963533 0.979917630891861
955 -4.868444534213612 -2.725384362695137 -2.8427356136983484
936 -0.792259519816417 -1.7797130963054655 0.3541596986503687
956 -1.779955149976413 1.0720781981145033 -1.2448198319389574
1156 -0.15548118661728688 3.0704036965052435 3.9018859749931916
937 4.3895502557705965 0.5768166762508213 -3.6036540425765815
957 1.0982992505705458 1.1229316964034666 0.3754109450191618
1157 -1.0941620788226323 4.583487984197179 -0.1396708361643291
1177 -1.8624570262048619 0.9737888962239782 -0.022912304328429216
1136 2.013051674463265 0.6419858421090796 -0.31185753196787025
1336 -2.0149443364675355 3.2210156493606346 -5.810512768204062
1356 -1.0917507255865124 3.5673521477779158 3.0485574434974265
1577 -2.9224564342050954 -0.19671386153152814 -5.916162149522634
1755 3.6679748959053375 -1.3769799930606128 -5.033675398209072
1775 -0.10693718799471202 4.346084210519771 2.472562034302277
1536 4.7686288508990025 -3.5077448707296117 -0.42164658441708636
1556 -1.7240369517149288 0.6963110468525077 4.15430737142563
1756 -1.8029129300081694 0.24379115120143507 0.6416291624968247
1736 1.631045664380981 -0.2682910044834195 -3.5283590514380725
1557 0.0466473788918452 -0.1682753276148203 1.6309540883639613
1955 -1.256696678115087 -3.2871656487422545 1.1587235274336343
175 0.17029331318937913 -0.7079337235780677 -0.8023946145457274
1975 1.0642206988509306 -0.5894068903739998 3.591217041183997
1936 1.371594270369695 -2.059924996625687 2.4596272618020656
1956 -2.233020339792687 -0.7167427321051195 3.4657891991898535
177 -0.7921888619084023 -3.5920426516384003 2.9204629555533983
395 3.5338887362276115 -2.7090985008160313 0.656252504187878
195 -2.479230519020118 -1.9283932909222767 2.4822088573095544
176 1.2141153906190392 1.687133221849258 -3.2201610914525594
196 -3.6860626462691792 0.005948175171755296 2.275210535557857
396 -0.027543066321924457 -0.11730760617090012 -0.04530156341359939
397 -2.1821498296694872 4.658527376114806 1.132783418470171
595 3.8315334838715422 3.2268830795650048 1.6220132980133748
376 -2.420827839095036 -0.48041523933343017 -1.5768525147675074
576 0.9933732114440454 3.704846937824724 -0.02500911935768017
596 0.4560639815825054 0.7556045045459516 -1.417841632821229
377 -0.8685894084432696 -1.4988827683103767 0.8904372108210296
577 0.7235385033970273 2.060655534511699 -1.2545596561882113
776 0.19094471550947384 -1.1584389847257122 -4.87643696943145
796 4.846546864664435 2.437594667104286 3.021129820580591
996 -0.035793495643149924 -1.7813767022307714 1.3913239205323753
976 3.0699628725237393 1.7939984547041004 -0.05552349327329269
777 2.83775245710372 0.8436562833847048 -2.192163558499158
997 0.36681655495991883 0.9342804819966873 -0.8452223998918098
1175 0.8215313938600839 -0.933931752956092 2.606596247528843
1195 1.6541972802263876 -1.1498650157978039 1.0932637188596133
1176 3.662480870300478 -4.308077155081459 -0.04859476812956487
1196 1.4296173261170095 0.7873919412553423 0.1660339974338396
1396 2.3462942655355095 2.551457887711864 -2.9440712351508584
1197 0.3268995105096077 -2.106013030108278 5.597092623997914
1397 3.8364346019392936 -2.095047342281792 0.7414780138443128
1375 1.084976104271025 -0.8564226889753042 1.5151523314249622
1595 1.5101916763127867 -1.0964401891192128 -1.261116755331356
1376 0.022609748954355358 0.004458788114560423 -0.6898412059271787
1576 -2.854493722641436 0.5705554270765819 -1.6303484864582356
1596 -3.3053869440067736 -3.033309344330185 4.841992337755546
1995 -2.2799475598789605 -4.739923341605622 0.5856172286656852
1776 2.74346338092591 3.0791855177028715 0.436120584098838
1796 0.6861846028707331 0.6439933134128321 -2.894697745565236
1996 -5.440258190511353 -2.319212640371483 0.3593538106790552
1976 -0.13475803952098728 -3.1706253998306835 -1.238006973397588
1997 -0.4595448217636945 -4.461065874643238 3.7179572901618485
197 -2.0563627539342506 -1.5621052232368293 -0.27996438869356044
38 0.24427890517750145 -0.09644192057403812 0.5798760314495833
18 -4.614230118963911 0.3701264994228445 -3.1204251554821876
218 -2.884314864135196 -1.130994942649775 -1.0023837001735936
238 2.3366894364675654 -1.2522935047954318 -0.8313136185157188
438 1.6616969877941012 0.12524872182481972 -3.78190599084485
217 3.2193521752260787 -0.6795479877314976 -2.015205402209508
17 -1.3673023750424176 0.5661284536518124 -2.8925162528416672
418 -0.3063682589123615 1.3420681623336062 0.2652152843302638
618 2.336020101386375 1.0825776065576205 3.073949892044129
637 1.9658887388445705 -3.1468484800466685 -1.0069127165470608
638 -3.4546020049975765 2.777556643923435 -0.2281818193010957
857 -1.8106123286702702 -4.759419270408533 -3.1079543904195823
859 -2.1418743602932633 0.1727819850921556 4.51609174895503
419 1.9386522689124162 -0.20839882313713193 -1.515218335323855
619 -1.2595840733228594 0.7788163046258656 -1.300667937504326
818 1.8599787649895347 -1.5396742397222063 -1.2902159106327633
837 -3.648872026392553 0.007881881644517282 0.17849259557404634
838 -2.597296137001525 -0.658551109990822 -3.8864112446594685
1037 1.2856646722154608 1.35280347997026 -0.031139199994097973
1038 -0.010303671175920057 2.382116477186528 -0.24480539076293822
1017 -0.9949596812582079 -0.7822047568388778 2.293759832957962
839 1.6167498769409345 0.07842294017543824 1.6850862855249629
1039 3.459619775660413 2.9698890147425248 -0.1310652834535008
1059 -1.4772475446414235 -1.058298799023615 -0.35788187555021655
1259 0.7481326454681309 -4.943119787724329 1.066851928359515
1018 -1.63040058830493 -2.90041486564806 -1.1591102534532718
1218 2.727959370265799 -3.0602503987768905 0.47527690901438296
1238 -2.0934719699166444 1.159505594326956 1.1927741085928258
1437 1.7315520514507827 0.8538477512632319 0.4934797899119847
1438 -0.23198143682333397 1.32191352379389 -3.9253542071629717
1239 1.6227517301740753 -3.120817386725802 2.462662481487797
1418 2.3637367780981346 -2.3550668550148064 0.5615083178837779
1618 1.108899271233075 6.477144819414128 1.161730371239577
1637 1.5781841297608161 1.825699412399338 3.070363874304364
1638 1.4298291430203727 0.9035425931507525 -2.2176731032472983
1857 -0.47018596281114905 2.0238254297969016 1.4361897704970512
1617 3.282397721319109 -1.1182162727831269 4.0753694155855715
1859 -1.2950702389632165 2.920280107942008 2.5898830744560986
37 0.867769832767843 -1.0007814531555506 -0.6004169135588353
1818 -0.47558627664146114 2.174376420583748 -1.4998864977225486
1838 -0.07338054534693697 -1.7865366880590385 -2.6677911102719776
57 -2.421211410382806 0.6015322533927436 0.7240865124964959
39 2.8402552152234684 0.9444531157979122 0.6894308985394482
59 1.9144983111023266 3.0683249265848014 -3.4547359660761865
97 0.6727049588326686 2.2295692108833425 -1.5517310488332476
257 2.943015964071222 -4.472078694530749 -3.5312802066515405
58 -3.4439373345589543 2.286834556214952 0.775424920817471
78 1.0956769841962297 2.8521112739593413 -4.828315399857639
277 0.5738659448236229 0.13742879072624314 -0.08044001649793316
278 2.256880039874137 -1.4912604178804256 -0.1995751569473778
499 -0.4576587716856045 -2.5646083352990128 0.937590290534061
457 0.48580556676732983 2.10014843556915 0.9127648012857299
258 -1.5918295245281093 0.1853084561905694 1.0219725727073266
458 0.3920972204882333 1.7895851871462223 -1.8005251263723638
477 -3.139030358228352 1.5064507344811204 0.5645511017714594
478 -2.7017903999076585 -2.6519917382485345 -2.8983813613558667
677 -2.8393199125336572 2.7254676698155778 0.7356643464433928
678 -0.4534781650336873 2.490116835515413 -3.8348661467146985
697 1.596051433543589 6.067802041487978 -1.2743837056374743
259 -0.7235894888103148 -2.2874051087195415 -0.9338388032757649
658 2.6922528084248225 -0.5372902617858675 -2.4584153952221617
858 2.7428569266978173 1.3668426771412916 2.1927266938572196
877 0.8312923009982259 -4.19237680658842 3.044348856149937
878 1.2292065996736337 -4.4268767162018134 1.9824120780778318
879 2.4462264662448208 -0.012136324151205215 0.6124166626395323
1058 -1.4441326425423884 0.7704738991538705 -0.7754757647205246
1077 -1.637201660632529 2.066163708672879 1.3797990053844622
1078 0.6121469326594762 -0.052408291483970255 3.060747111697951
1278 3.853117979513316 1.3731284175255778 -0.7019983735483244
1258 3.9683892864455474 -2.086371176448314 -0.35576144006285737
1458 0.9173477980189003 -1.710883843579784 2.263506807704632
1477 -3.125192029491351 -1.120325574238168 -2.3418242275632464
1478 0.7188249434633046 0.44796481088456497 1.1684405326180074
1677 -1.5692869695637321 1.1284038184501752 -2.7511285088367865
1678 -0.4655096843546538 5.171057205160145 -0.10715588308140792
1479 3.209624717215738 2.8792297387205323 3.481227433273249
1679 0.12515111932740663 -0.9586971258781096 -1.7665979665330835
1499 2.136647998429588 -0.7241154181484233 2.252755500394953
1658 1.163713365802427 -0.17062218436536894 2.6851284678401304
1858 2.9782260868239443 0.19197388364099524 -2.9992515492007543
1877 -2.313637729923414 -0.8592574000192638 0.11058969216814792
1878 4.858008335420816 1.3981710654119281 -1.6055730123412348
98 0.6541795643552974 3.560158174576161 3.8877884295279386
118 0.8948017527485688 2.7803120420310004 4.618128051486963
99 -1.3456804514441365 1.263822433416026 -0.3874505907561473
119 -2.98193242214976 -2.0054749847594033 0.5360948335249955
298 -2.008535529294857 -1.164798847556005 2.7079633012509716
317 -0.683410939279419 2.9890618665066646 3.1870571030982124
318 2.2217437636359785 0.32715270847990013 1.9614001834734351
517 -1.702785716669272 -1.9709169674468858 1.0443847840457157
518 1.0821457995836146 2.4311732288730035 -1.7616844716882354
319 -0.17114440733887032 -0.9438443843076876 -1.807008114140545
519 2.5582737026422397 -0.5674775237883662 -0.07665139585129195
539 -3.3804990011839 3.233631055396125 -1.6718837358035676
497 0.3998161644277349 -6.735513403398019 2.1716306854926137
498 1.2638716608719214 -1.6183761534068073 -0.057614828435866905
698 1.3583628011891866 -2.470059909260735 -1.7690553854081048
718 1.3531203863352654 1.208511726361108 -0.01277479943698799
917 0.4397602522691375 -1.9943102035454248 -4.4570177609580375
918 -2.299717741759993 -1.1602870561682426 2.7271689694120043
719 0.6001946283957148 3.7609628288865617 0.6997572576768138
1097 -4.858915606242074 -1.0656633541617044 0.014402357022943206
898 -1.539067045925724 4.625231127438482 0.42075295877749946
1098 -0.0072940963376857074 2.889678337093904 -0.14552997166826911
1118 1.3310118177937715 -2.029079493972721 1.4220056213884291
1099 -1.6176002070281221 -2.024330981773396 -0.7817187178149787
1119 -0.28250869417530694 0.93733815095109 -1.5656974574159732
1298 -2.018335945725396 1.578894404889342 -3.186251856145663
1317 1.5759755364648917 -2.2557937629518894 2.162165096232043
1318 1.2488591368384834 1.431136980661304 -4.833044200704449
1518 -0.32916979621280046 0.5806994532406867 -2.6396044991898253
1498 0.054160451166165184 2.293428261064704 -0.8427662651184605
1698 -0.15641884940386222 -0.533364752068273 1.913049376169828
1717 4.228239606464633 0.9904108755398904 1.926645336265029
1718 3.9473591831529404 -1.6096901305739424 -0.24881906088220013
1917 -2.26971649477724 -2.79340083887417 0.5512312872599576
1918 0.5453283303614951 -1.7928619699639996 -3.8131545757936087
1937 7.2708234638652725 1.2267237023470372 3.5739766505945956
1897 0.7745547569952107 5.358111413448759 2.6188544728733096
1898 -3.403303414197384 3.91790392705579 2.745619567907492
158 4.674181353476594 2.5043537949779755 -0.13595063019506948
157 3.5555080558031755 1.7839686424399253 0.5277209042448423
337 1.4328879104214736 0.48084132937511725 -0.6035181571612922
138 1.1297461726174483 -2.089942152536483 4.385358660303063
338 0.1471069553835996 1.970037294259706 -0.9063804352439802
358 3.1244626806568037 -3.5776331921420113 -1.2326560640203872
537 -1.2154791951188832 -0.8921223704191568 -1.3738570542719997
737 -0.40096482727811866 4.471122163285456 0.5614125591416605
538 1.304389446477504 1.7999598346483243 0.9427174771946728
558 -1.363462300376413 -2.0243819251972877 -0.24841355048404815
758 -3.18027523958614 -2.58987182181506 1.7123707036677287
759 0.34226575482867966 -1.0022073900156796 -0.5536892973766554
779 -6.210754234289857 2.246441505361958 -2.7565941621168197
738 4.210319611129353 -0.0918172024033879 -0.3786899443985808
938 -3.5594040136251657 0.5965641132006062 -1.568372180065985
958 -1.3262307946508158 -0.7357396453792632 -3.7798402227349044
1158 -1.4343907366319948 1.7540156449661182 1.6399487146445604
959 0.6962124076847483 -2.481760603054905 -0.5660337716714625
1337 0.7590380118178521 1.7847953748755745 0.6328444066206413
1138 -0.5985110928890295 2.5599892691685837 0.28630939328813326
1338 1.210081810276184 -1.451980689487765 0.06788188291409611
1357 1.039414187988153 -2.9555602432875134 -1.5702760623545757
1358 -1.1561962411891256 -0.9962138243927098 -2.9086611350787135
1139 -3.433490105824339 3.7912269150455837 -4.859831037533907
1379 1.7531278992164794 1.5387793995168613 -2.4987673440054925
1579 -2.3938143070903912 -3.490916120690289 1.8098973307159447
1538 -1.2305923969065709 2.2743277737586802 0.008299348145932257
1558 1.411284035433755 1.4126629944747149 2.491585513512256
1757 -5.682017993950149 -0.3753446426449035 -1.9592210356628825
1758 -0.17252640099915512 -1.0407815975538899 2.316910580467683
1777 -1.361518424254955 4.711045353573969 0.6878119415583636
1738 -5.977818242063209 -0.6230091965680523 -0.9374499406573665
1977 -2.396576641808311 0.6951916709259501 -2.8730670921137387
1539 -2.8821994453759903 -0.5592423886410652 -0.766197010900602
1938 3.2557801177546173 6.034436180804069 -0.4124098598350741
1957 -0.621856762596363 -0.9588896969152421 2.945400051677583
1958 1.409675713861794 -1.1675728316453262 6.182300726228061
178 -0.760674003376834 -3.49812616385534 -0.39915705062209234
198 3.063848261844015 -4.139776814166292 -1.0206555801885249
398 -1.521972854660363 -1.415868088515366 0.08746615720382303
417 -3.3537505415758586 -1.183277108222244 3.3441925214657227
378 6.145156251323955 -4.052669019324983 -4.797435529895463
578 -0.5811714475478446 2.530046988256975 2.07665418700158
597 -2.1354368162373696 -1.2200713427008514 -3.855137973742274
598 -0.6391402564587902 1.6156875740144918 2.3047366168194943
778 -1.0123601287872095 1.8734874209734813 -0.9519704740864221
797 -2.726178974367499 5.771473650930486 1.746969725884304
798 3.3534681334499488 1.5631512595212849 -2.205366720968935
998 1.6479006770259617 3.6415875998911122 -3.4923395409374773
978 -0.09359698394324642 -1.2932708072565435 2.3740022075604177
999 -5.13748917041171 1.0333519028605271 1.2314370357831699
1217 -0.7757395684627536 4.834422450311971 -0.49312686128520816
1178 0.6951168169224461 0.7771236851646316 -4.872335642148976
1198 -3.69283078652925 0.41898695273488656 -0.38604142054699303
1398 -1.002358692618921 -0.6471467150041025 -5.747642515504201
1179 -0.09925817226452334 2.355671073902411 -1.3739766397706294
1199 3.8761675452382236 -0.8541951356458348 2.259704693741633
1377 -3.100835383852399 0.7035115035580223 1.2375762188783659
1417 1.4113110993280704 1.620215704367846 -0.8778853252770569
1378 -0.9383122889155592 -0.24120157038335732 3.0963622048054917
1578 0.1817292964162779 0.21990322751273675 3.952758181047263
1597 -1.3661814807633406 -0.7198237606675455 2.2197649902918646
1598 -1.2801241268190182 1.971836997395103 0.050096378368705966
1419 0.03493416188881776 0.03613011474433859 -0.7205286595851182
1619 3.5566138949668793 1.398589160342101 -2.4568565534676554
1817 0.1954873460391347 1.8074476440527987 2.3487188698809645
1778 -2.9496645825328898 -2.0031513169804196 1.2265341972462112
1797 1.2408285588348726 -3.454262377826341 1.2054816512469229
1798 -1.1696353937048878 -3.296523381131273 -0.009301169241024454
1998 0.07027211557100237 -2.6254742650393283 0.07426692330973172
1799 -0.2280860124314395 1.0872150723696405 0.4717298167113644
1978 0.4801797836548821 -1.2130051045927237 0.6796759329960185
199 -0.047568691781373386 -2.671194301137243 -1.0140362714032007
40 -2.001493744698182 -1.8705686325104567 -1.035124128742759
20 -2.7724730411184306 -1.7436148299637284 1.8434576871316521
1 0.5694158275844532 -1.165926615938997 0.03186364104286988
239 -2.249454658592733 1.6065968746068233 -2.0607309867931107
439 1.4691887453481423 -1.4289150486935875 -1.7948745955931154
459 -0.3865428312355269 1.841658035910441 -2.2075259819397917
220 2.2812765349163167 -4.888034004933871 1.1966863736393052
240 -0.47034772074952885 3.0510501631041227 -0.6592305419603189
440 7.111135316194468 4.749821020504049 -3.9504790141920783
219 -0.5671759406579184 3.758022653060395 3.925218628769385
641 -4.382734263808784 3.3218779506859284 -0.021877486292870004
601 1.618251707038391 2.9765309608756962 -0.6784948077045345
639 -1.8843971984046741 0.20314367158766064 1.5035758264353687
659 1.0623272442395237 -1.9515958438711274 -0.36344777412510587
420 3.8605165715298226 -1.7712072626624373 0.771796026665372
620 -1.7955153664805803 -1.550561295473092 2.0455803049882966
640 -2.807165571835125 0.8067327519693415 0.6356366917379198
821 -0.18673956773798936 2.765457088634191 2.2788260475139426
1001 -5.192721596666665 2.24299668638325 0.5499351978578663
820 -1.0907352761839806 -3.0688061259952857 2.4300364756459873
840 2.138457459091654 3.8571605276147207 2.860997603588245
1040 0.5811691066265154 7.833258975249913 0.6421555456258833
819 5.3619391975976995 -3.9274257266796497 -0.7272147901185889
1441 0.9471459999436441 -2.4050160440075508 1.1863523004707308
1201 -2.5094129980165962 0.8195775377505639 -2.6056993916194267
1020 0.8309605174163934 1.82980631157641 4.43995670904445
1439 -3.8734126356759315 -3.998657769528362 0.6835331270597725
1459 -0.2915009317391086 -5.28332411414055 1.953253179373506
1220 1.6355212291891805 -0.7249542576152049 -2.393441951459019
1240 1.4569173216520852 0.7799552692400283 0.13741523441593137
1440 -1.8312759091663229 -3.466325408037717 2.171367732009627
1219 0.5430654239965133 -2.0003320516393748 -0.21272188323724467
1621 0.7326515810127534 -1.9390899789397213 3.7750882472019343
1639 -2.9687277857818084 -0.6555969766579303 0.06089383275615013
1659 -4.417943364688434 1.6543715339012668 -1.088352164494004
1420 0.013152889927868616 0.45272324741840514 2.551556610772599
1620 3.3195304232447818 -3.3278398397845206 -0.6824279979864379
1640 1.8322556503976437 2.7205287289625364 -0.8129839332342498
1821 -5.0836166894674655 -4.161492759224032 2.2516512226682575
41 1.6161692211578718 -1.0438064434067589 1.7082737421322376
1839 0.5744011387086959 3.2491815477958137 -0.4289970598740134
1820 -1.0799658308782216 1.6483538107288873 -0.7929858078886807
1840 -0.9941746778005728 3.039936064638589 -0.38421949649417364
241 -4.759516083601282 1.9618271944076902 0.8700578248261965
261 0.5526185230225015 -3.0338634082636435 -1.3269389881262639
61 -0.7215320355779791 -0.7689299709050388 -0.378192232493678
279 -0.6786416118301508 2.566294361810257 -2.4760498171625107
60 1.7922133760595715 -2.701928719513918 2.6419873802602547
80 1.7668144453605306 0.4581202303221293 -0.8931638781233295
280 -0.3977563971363385 -1.1487559731912946 -3.381529234238488
260 5.1559194673339155 -0.5550837721843841 -1.290479464280804
441 2.838640323908232 2.40099669850069 -1.2824124904869314
461 1.9639274850987376 -3.511462608466159 2.1337509121017155
661 -1.5127063501138023 0.9655068245120341 -1.722968301668508
479 -4.231690523779098 -1.583380594303693 3.0214410652935872
679 2.636246632013447 0.2525230366239853 -1.5044311357888303
460 -1.2978454234099568 3.119286889653997 -1.8640759869962737
480 3.307322239993712 -1.5415091950927629 -0.1478305215825054
680 -0.23847423657380634 -2.5662050555269165 0.04145402855717354
1081 -1.868617404072608 1.7520930970822706 -2.768069696090664
899 0.26622916933949897 1.280252600372601 4.153797029692574
660 2.336186381729214 -0.21526969623556544 1.6539503608244643
860 -1.0918080817980964 -2.828099527075293 -3.163957218716556
880 0.08104301887281087 -1.1683715568527904 4.345672365390672
1061 -1.1375205063944962 0.21261553805414218 1.8409461244623628
1261 -2.4083712562670354 -0.0828820067087946 -1.553713246373364
1281 -5.197305662153309 1.191180424133804 3.673517913299253
1079 0.8091639798787404 0.6671470918249705 -0.27635911201674546
1279 -0.47693910989067995 2.888330930529862 0.8410100530289839
1060 5.314426854725672 -2.1609133312555846 1.1309038882637965
1080 1.1309350054651957 -1.7441901092896401 1.464938400099775
1280 0.6045502081381429 0.2295879574685918 -1.0374413621057708
1241 -0.6544625365804211 -0.6576467900915562 0.0841228521231323
1681 1.2686271625881136 -0.11601954969925259 0.6545155504891428
1260 3.046055252858983 -3.533845102211213 0.811662404133099
1699 3.046016095709891 -1.975234747653627 -0.7771671458312729
1460 -0.7282883261231886 -3.5208282211807873 -1.3107177956980118
1480 1.5139968634741723 -0.6153007013015533 2.0405583925193875
1680 -0.5214392838374603 3.5961170647220593 -0.004533410136148193
1861 1.5206089452955636 -0.995126904782825 -2.7272072931887763
1879 -1.059564647570195 2.1103060869118355 -1.8274284043277045
1660 1.726858378559305 4.985043174512712 4.475880031079332
1860 1.4692518484091226 -0.17752390755931 1.7798508168312048
1880 -5.317527970470371 3.0983658309721225 1.5357355410296365
79 -3.4928447180482776 1.518173965286732 2.4202463489409207
81 -1.3259980846293735 -1.399513328282878 0.9455591857809317
101 0.0735248764259137 -1.8217576374461302 0.35684700781170314
100 -0.9197428695523798 -2.4850880412797354 3.520556647385712
120 -1.2339353497441976 -0.5299203086307098 -2.5005100884017235
139 -3.0101039403040066 -0.08190362785022548 -1.1212038334193846
481 1.6585689962606984 4.527173411703972 -5.30010838253354
299 2.7523478929765393 1.4018478326640338 -3.0959001778404027
300 1.3211835592419425 -3.0738920001863135 -0.3691907521400861
320 0.46177105012917125 -1.3761699806310237 3.685493378205479
520 -1.4317413723320906 1.4178114431221183 1.7599734539607244
500 0.5714212709663185 2.4472614172137255 -4.43460121186635
699 -0.5538992719060855 -3.581896765990327 2.7745696119988104
739 5.221727707773933 -3.1909955156982934 -1.973035806109098
919 3.8769795277513315 2.6227329361280485 1.0909915081066097
939 -2.467735645713288 3.5703203398760146 1.197930988749288
700 -2.9637682375636953 -0.46172181582337685 0.8384595894614526
720 -0.5222328663426029 -1.7509250356359154 -0.6599256180034743
920 -0.20402196362131886 2.4880921159809595 -2.1093074851447535
881 -2.9642737310395235 2.5365822535646187 -1.953337455558803
900 3.152728812852397 1.3587477014027454 3.5618429567268195
1100 1.0242459185952972 -1.7765827800641982 -0.704104379608695
1120 -0.29965672088018086 -1.46524019226467 2.472936747449098
1299 -3.576335698617507 -0.15584576290459587 -3.693516072184227
1319 0.5697553199721024 0.5716685570256641 1.9987398191574661
1519 1.4536500905124252 -0.696379646456408 3.0576199150570584
1300 -1.9062664499860016 -1.9788186149610127 0.6670951635174242
1320 0.060805313703477054 -2.0016459549274317 0.7153309011211662
1520 -0.8176891561909675 2.981371533414247 -2.981630011986169
1739 3.560989100528076 -2.848375599391649 2.608776681959857
1481 -1.658812108880856 -2.6451049935037068 -0.04367086530725798
1701 -1.5204527117033042 1.62573238302886 -0.5661257230955253
1901 2.472527358575684 -2.5480242114123413 -4.54454061920084
1719 3.9800524331339884 -4.128323196079668 -0.4169601578960945
1919 -2.875462652182262 -1.0239887515188622 1.7407612437660975
1500 -1.0572691488495525 -6.513210154718057 5.572294256224569
1700 1.2760149396979292 -1.637017350898494 2.1535118660333428
1720 0.18119060102046697 -5.120960317026907 -0.5086226407639601
1920 -1.0666607712857958 0.41225535785975354 -0.5451306838113519
1899 -0.2640329604208407 -1.5530097246690566 -2.1899946195367828
1900 -0.9218077484434855 -0.6941750809805289 5.515723613272134
160 1.2244237287000712 -2.8291426055437428 0.8236206958429744
159 -0.6431421722450892 -4.051544612091969 0.6905476277869251
121 4.289560626131877 0.5252991654153797 0.6928433937210459
339 3.4225503209034067 3.3894090286263054 0.6503382767251318
359 1.7134089257627958 1.6513511736724586 0.09168672824755907
379 -2.030674499742879 1.51889663365267 1.9348410628787542
579 1.0893726120323224 -2.857992761304636 3.1426576246322866
140 2.145218984234873 -2.173896614139036 -2.3864130430533343
340 2.705904836780833 1.8620581676483354 -4.383237042315338
360 0.45057431577177054 -3.8774769935047924 -1.6693522503779166
541 -0.7078698482034954 1.3524131947514697 -3.317538743830673
961 -4.562772465512065 -2.2004224041311575 -2.730914275625779
559 1.5066641079140755 -1.0019012477530502 -1.6339757180087546
540 0.5053937003540424 -4.581992761180312 1.578693310520291
560 0.21395966560548726 3.5753776897988865 3.9451091948206107
760 -2.0546075059478888 1.3874049137332616 -0.8144040788466487
979 0.6738495578724508 -0.9440928476003408 -1.6662773208346506
740 2.1497542506413434 2.54577461404228 6.435402874628987
1159 2.9845289788184064 2.670536925184246 -0.5206183173152458
940 1.1067389285058244 0.48727425593625784 -1.0584218935116534
960 2.4905309141498897 3.8023727004852983 -1.5943099955740203
1160 3.4471697567727104 3.640035075029698 -5.857642724041295
1361 -1.8290564530539515 -1.4176873394810459 3.090782453030016
1561 3.877908059509685 -4.295869381293364 2.7622087018418573
1339 1.264552437600136 1.1520691285026945 -0.5092247336614548
1359 1.9287809769834474 -1.7070706552090087 -2.2935608227634146
1140 -1.4284822761544933 -2.579938176122645 1.9078808359295345
1340 1.4515152781719873 -2.3633305330108296 0.23417800834617758
1360 -6.480578376000647 -0.48889553974262634 -0.9026138968204177
1541 6.3859444980388655 -1.3105664655773768 -2.719330963774136
1559 4.277033542858699 -2.549391988751255 0.6233805415873251
1759 -1.8182010875528092 -0.6705307719330933 -2.546216696803097
1540 1.0827956498384455 0.04142920811108217 -4.255501313482431
1560 0.08583446692154226 2.852119727272151 1.3484668188536941
1760 1.5207841357717293 -1.4925665723631893 -2.2966944050219875
1939 -2.0625749358346694 -1.8541419371937116 0.6284028439583473
1959 -2.0674148336512816 -0.3132642261516026 0.9699242792800261
1740 -0.8280021146334257 -5.297943552185986 -2.3574908163387716
1940 0.12726439302124676 -1.8356146603717085 2.2909618701365
1960 -1.2948480116209202 -0.2628941183219413 1.4922002995782542
381 4.599560153605837 2.5001655831219574 -0.29470366317602104
179 -1.5675613802749258 -2.0482928259359197 1.9391536763392576
399 0.86223873802352 -3.058568097418186 2.5994180779051077
180 -1.3874953114739248 2.0654898425626835 1.0871650618635744
200 2.665384312385814 -4.497091675323208 4.02634067647566
400 1.6830687460203035 -2.2698280573375844 4.840493218049314
19 1.1528105996259115 -0.0904607316274243 0.0698493589045179
561 -2.798451212665229 -0.894938183925527 -1.3636679484739143
401 -1.2717231322229696 -0.2757661667381483 -2.261907794762806
581 -1.7541253145259308 1.2815265120954233 2.0715720286195913
599 -1.5983946884279023 -1.8452893183949797 0.8078844129005407
380 -0.10017468650786276 -1.157456484982617 2.3022479917029224
580 -0.038801228628648064 1.4059553329429242 1.5685309370858094
600 5.195095712440726 -2.3600913406181734 -2.498336532436806
799 1.0835778867716774 0.16722636911005892 -3.473843836898591
780 -1.9119826145775722 0.6104719904515165 0.5053784767406708
800 0.9335641241147079 2.413771599613914 -0.07047070348189667
1000 -3.7982943393447046 0.5354304810741459 -1.119652648553032
980 1.351553925971049 1.6529695262412685 -1.9654452163499863
1381 -1.2836058918892825 5.3645058669069465 -0.9664042396546227
1019 3.4425137712019858 -0.06185524079522268 2.4532420121871485
1399 0.32992840259420114 2.693682309413982 -0.9340747517805172
1180 -1.0952557901236748 1.990103617471918 1.0820108725941338
1200 -2.611326938027889 -0.6476414762537834 -3.8444123819967833
1400 6.074352024130518 -1.4430687590300713 1.4943594447065753
1401 -0.12741176921014769 -0.6097496514400966 0.9700468815732265
1601 -1.9824207403414897 2.950961580939056 -2.3601106764476376
1581 -0.8627084243825174 -0.6541941632104283 0.880233569049189
1599 1.2633167177222595 -2.7536766577346676 1.6016073554162669
1380 0.8689406368945941 -2.029650415980258 -2.500346539468567
1580 -0.3193088812187184 0.11754039096978586 -3.167958028005821
1600 0.7662589784019084 -0.04316812943465121 -2.710722830825614
1761 0.9903528740339285 0.5367413432725213 4.353351494590377
1779 -1.1908100470720904 -2.739398614398406 0.07438020369206237
1819 1.9091150539296535 -0.6241268347632085 0.8033199771701198
1999 2.7663446106049436 -0.05449904475887158 -2.079442909719229
1780 1.8159835823397863 1.580497514014657 -0.6370551754972882
1800 0.8611518170963554 0.08426122907240814 -2.177653195650727
2000 0.9005881520232161 -0.38552953857943073 -0.9106384512913012
1980 -1.0006470688937286 -0.8715891815411417 2.600386222691583
181 3.664312196476878 0.9902885510355768 2.6628240002624866
1979 -2.570716810343002 -0.6356332815373547 3.0836164321081854
