ITEM: TIMESTEP
11
ITEM: NUMBER OF ATOMS
2000
ITEM: BOX BOUNDS xy xz yz pp pp pp
-1.4715318139560855e+01 2.9482672822860756e+01 -1.4732645316700102e+01
1.5005686570506526e-02 2.5532743725070429e+01 1.3198699862048053e-15
-1.2152900938957241e-01 4.6921529009389573e+01 7.4683542555208525e-16
ITEM: ATOMS id type x y z
21 1 28.0094 2.56678 -0.121529
22 1 -1.45594 4.26796 2.23062
1 1 14.75 25.5327 -0.121529
2 1 0.0173291 1.71619 2.23062
201 1 -11.7688 25.5327 -0.121529
202 1 2.96386 1.71619 2.23062
221 1 1.4906 2.56678 -0.121529
222 1 1.4906 4.26796 2.23062
421 1 4.43713 2.56678 -0.121529
422 1 4.43713 4.26796 2.23062
401 1 -8.82225 25.5327 -0.121529
402 1 5.9104 1.71619 2.23062
601 1 -5.87571 25.5327 -0.121529
602 1 8.85693 1.71619 2.23062
621 1 7.38367 2.56678 -0.121529
622 1 7.38367 4.26796 2.23062
801 1 -2.92918 25.5327 -0.121529
802 1 11.8035 1.71619 2.23062
821 1 10.3302 2.56678 -0.121529
822 1 10.3302 4.26796 2.23062
1021 1 13.2767 2.56678 -0.121529
1022 1 13.2767 4.26796 2.23062
1001 1 0.0173546 25.5327 -0.121529
1002 1 14.75 1.71619 2.23062
1201 1 2.96389 25.5327 -0.121529
1202 1 17.6965 1.71619 2.23062
1221 1 16.2233 2.56678 -0.121529
1222 1 16.2233 4.26796 2.23062
1421 1 19.1698 2.56678 -0.121529
1422 1 19.1698 4.26796 2.23062
1401 1 5.91042 25.5327 -0.121529
1402 1 20.6431 1.71619 2.23062
1601 1 8.85696 25.5327 -0.121529
1602 1 23.5896 1.71619 2.23062
1621 1 22.1163 2.56678 -0.121529
1622 1 22.1163 4.26796 2.23062
1801 1 11.8035 25.5327 -0.121529
1802 1 26.5361 1.71619 2.23062
1821 1 25.0629 2.56678 -0.121529
1822 1 25.0629 4.26796 2.23062
41 1 26.5361 5.11855 -0.121529
42 1 -2.9292 6.81974 2.23062
61 1 25.0629 7.67033 -0.121529
62 1 -4.40246 9.37151 2.23062
261 1 -1.45593 7.67033 -0.121529
262 1 -1.45593 9.37151 2.23062
241 1 0.0173326 5.11855 -0.121529
242 1 0.0173346 6.81974 2.23062
441 1 2.96387 5.11855 -0.121529
442 1 2.96387 6.81974 2.23062
461 1 1.4906 7.67033 -0.121529
462 1 1.4906 9.37151 2.23062
661 1 4.43714 7.67033 -0.121529
662 1 4.43714 9.37151 2.23062
641 1 5.9104 5.11855 -0.121529
642 1 5.9104 6.81974 2.23062
841 1 8.85694 5.11855 -0.121529
842 1 8.85694 6.81974 2.23062
861 1 7.38367 7.67033 -0.121529
862 1 7.38367 9.37151 2.23062
1041 1 11.8035 5.11855 -0.121529
1042 1 11.8035 6.81974 2.23062
1061 1 10.3302 7.67033 -0.121529
1062 1 10.3302 9.37151 2.23062
1261 1 13.2767 7.67033 -0.121529
1262 1 13.2767 9.37151 2.23062
1241 1 14.75 5.11855 -0.121529
1242 1 14.75 6.81974 2.23062
1441 1 17.6965 5.11855 -0.121529
1442 1 17.6965 6.81974 2.23062
1461 1 16.2233 7.67033 -0.121529
1462 1 16.2233 9.37151 2.23062
1661 1 19.1698 7.67033 -0.121529
1662 1 19.1698 9.37151 2.23062
1641 1 20.6431 5.11855 -0.121529
1642 1 20.6431 6.81974 2.23062
1841 1 23.5896 5.11855 -0.121529
1842 1 23.5896 6.81974 2.23062
1861 1 22.1163 7.67033 -0.121529
1862 1 22.1163 9.37151 2.23062
81 1 23.5896 10.2221 -0.121529
82 1 -5.87573 11.9233 2.23062
101 1 22.1164 12.7739 -0.121529
102 1 -7.34899 14.4751 2.23062
281 1 -2.9292 10.2221 -0.121529
282 1 -2.92919 11.9233 2.23062
301 1 -4.40246 12.7739 -0.121529
302 1 -4.40246 14.4751 2.23062
501 1 -1.45593 12.7739 -0.121529
502 1 -1.45592 14.4751 2.23062
481 1 0.0173381 10.2221 -0.121529
482 1 0.0173401 11.9233 2.23062
681 1 2.96387 10.2221 -0.121529
682 1 2.96387 11.9233 2.23062
701 1 1.49061 12.7739 -0.121529
702 1 1.49061 14.4751 2.23062
901 1 4.43714 12.7739 -0.121529
902 1 4.43714 14.4751 2.23062
881 1 5.91041 10.2221 -0.121529
882 1 5.91041 11.9233 2.23062
1081 1 8.85694 10.2221 -0.121529
1082 1 8.85694 11.9233 2.23062
1101 1 7.38368 12.7739 -0.121529
1102 1 7.38368 14.4751 2.23062
1281 1 11.8035 10.2221 -0.121529
1282 1 11.8035 11.9233 2.23062
1301 1 10.3302 12.7739 -0.121529
1302 1 10.3302 14.4751 2.23062
1501 1 13.2767 12.7739 -0.121529
1502 1 13.2767 14.4751 2.23062
1481 1 14.75 10.2221 -0.121529
1482 1 14.75 11.9233 2.23062
1681 1 17.6965 10.2221 -0.121529
1682 1 17.6965 11.9233 2.23062
1701 1 16.2233 12.7739 -0.121529
1702 1 16.2233 14.4751 2.23062
1901 1 19.1698 12.7739 -0.121529
1902 1 19.1698 14.4751 2.23062
1881 1 20.6431 10.2221 -0.121529
1882 1 20.6431 11.9233 2.23062
141 1 19.1698 17.8774 -0.121529
142 1 -10.2955 19.5786 2.23062
121 1 20.6431 15.3256 -0.121529
122 1 -8.82226 17.0268 2.23062
321 1 -5.87573 15.3256 -0.121529
322 1 -5.87572 17.0268 2.23062
341 1 -7.34899 17.8774 -0.121529
342 1 -7.34899 19.5786 2.23062
521 1 -2.92919 15.3256 -0.121529
522 1 -2.92919 17.0268 2.23062
541 1 -4.40246 17.8774 -0.121529
542 1 -4.40245 19.5786 2.23062
741 1 -1.45592 17.8774 -0.121529
742 1 -1.45592 19.5786 2.23062
721 1 0.0173436 15.3256 -0.121529
722 1 0.0173456 17.0268 2.23062
921 1 2.96388 15.3256 -0.121529
922 1 2.96388 17.0268 2.23062
941 1 1.49061 17.8774 -0.121529
942 1 1.49062 19.5786 2.23062
1141 1 4.43715 17.8774 -0.121529
1142 1 4.43715 19.5786 2.23062
1121 1 5.91041 15.3256 -0.121529
1122 1 5.91041 17.0268 2.23062
1321 1 8.85695 15.3256 -0.121529
1322 1 8.85695 17.0268 2.23062
1341 1 7.38368 17.8774 -0.121529
1342 1 7.38368 19.5786 2.23062
1521 1 11.8035 15.3256 -0.121529
1522 1 11.8035 17.0268 2.23062
1541 1 10.3302 17.8774 -0.121529
1542 1 10.3302 19.5786 2.23062
1741 1 13.2768 17.8774 -0.121529
1742 1 13.2768 19.5786 2.23062
1721 1 14.75 15.3256 -0.121529
1722 1 14.75 17.0268 2.23062
1921 1 17.6966 15.3256 -0.121529
1922 1 17.6966 17.0268 2.23062
1941 1 16.2233 17.8774 -0.121529
1942 1 16.2233 19.5786 2.23062
161 1 17.6966 20.4292 -0.121529
162 1 -11.7688 22.1304 2.23062
181 1 16.2233 22.981 -0.121529
182 1 -13.2421 24.6822 2.23062
381 1 -10.2955 22.981 -0.121529
382 1 -10.2955 24.6822 2.23062
361 1 -8.82225 20.4292 -0.121529
362 1 -8.82225 22.1304 2.23062
561 1 -5.87572 20.4292 -0.121529
562 1 -5.87572 22.1304 2.23062
581 1 -7.34898 22.981 -0.121529
582 1 -7.34898 24.6822 2.23062
761 1 -2.92919 20.4292 -0.121529
762 1 -2.92918 22.1304 2.23062
781 1 -4.40245 22.981 -0.121529
782 1 -4.40245 24.6822 2.23062
981 1 -1.45592 22.981 -0.121529
982 1 -1.45591 24.6822 2.23062
961 1 0.0173491 20.4292 -0.121529
962 1 0.0173511 22.1304 2.23062
1161 1 2.96388 20.4292 -0.121529
1162 1 2.96389 22.1304 2.23062
1181 1 1.49062 22.981 -0.121529
1182 1 1.49062 24.6822 2.23062
1381 1 4.43715 22.981 -0.121529
1382 1 4.43716 24.6822 2.23062
1361 1 5.91042 20.4292 -0.121529
1362 1 5.91042 22.1304 2.23062
1561 1 8.85695 20.4292 -0.121529
1562 1 8.85695 22.1304 2.23062
1581 1 7.38369 22.981 -0.121529
1582 1 7.38369 24.6822 2.23062
1761 1 11.8035 20.4292 -0.121529
1762 1 11.8035 22.1304 2.23062
1781 1 10.3302 22.981 -0.121529
1782 1 10.3302 24.6822 2.23062
1981 1 13.2768 22.981 -0.121529
1982 1 13.2768 24.6822 2.23062
1961 1 14.75 20.4292 -0.121529
1962 1 14.75 22.1304 2.23062
23 1 28.0094 2.56678 4.58278
24 1 -1.45594 4.26796 6.93493
3 1 14.75 25.5327 4.58278
4 1 0.0173291 1.71619 6.93493
203 1 -11.7688 25.5327 4.58278
204 1 2.96386 1.71619 6.93493
223 1 1.4906 2.56678 4.58278
224 1 1.4906 4.26796 6.93493
423 1 4.43713 2.56678 4.58278
424 1 4.43713 4.26796 6.93493
403 1 -8.82225 25.5327 4.58278
404 1 5.9104 1.71619 6.93493
603 1 -5.87571 25.5327 4.58278
604 1 8.85693 1.71619 6.93493
623 1 7.38367 2.56678 4.58278
624 1 7.38367 4.26796 6.93493
803 1 -2.92918 25.5327 4.58278
804 1 11.8035 1.71619 6.93493
823 1 10.3302 2.56678 4.58278
824 1 10.3302 4.26796 6.93493
1023 1 13.2767 2.56678 4.58278
1024 1 13.2767 4.26796 6.93493
1003 1 0.0173546 25.5327 4.58278
1004 1 14.75 1.71619 6.93493
1203 1 2.96389 25.5327 4.58278
1204 1 17.6965 1.71619 6.93493
1223 1 16.2233 2.56678 4.58278
1224 1 16.2233 4.26796 6.93493
1423 1 19.1698 2.56678 4.58278
1424 1 19.1698 4.26796 6.93493
1403 1 5.91042 25.5327 4.58278
1404 1 20.6431 1.71619 6.93493
1603 1 8.85696 25.5327 4.58278
1604 1 23.5896 1.71619 6.93493
1623 1 22.1163 2.56678 4.58278
1624 1 22.1163 4.26796 6.93493
1803 1 11.8035 25.5327 4.58278
1804 1 26.5361 1.71619 6.93493
1823 1 25.0629 2.56678 4.58278
1824 1 25.0629 4.26796 6.93493
43 1 26.5361 5.11855 4.58278
44 1 -2.9292 6.81974 6.93493
63 1 25.0629 7.67033 4.58278
64 1 -4.40246 9.37151 6.93493
263 1 -1.45593 7.67033 4.58278
264 1 -1.45593 9.37151 6.93493
243 1 0.0173326 5.11855 4.58278
244 1 0.0173346 6.81974 6.93493
443 1 2.96387 5.11855 4.58278
444 1 2.96387 6.81974 6.93493
463 1 1.4906 7.67033 4.58278
464 1 1.4906 9.37151 6.93493
663 1 4.43714 7.67033 4.58278
664 1 4.43714 9.37151 6.93493
643 1 5.9104 5.11855 4.58278
644 1 5.9104 6.81974 6.93493
843 1 8.85694 5.11855 4.58278
844 1 8.85694 6.81974 6.93493
863 1 7.38367 7.67033 4.58278
864 1 7.38367 9.37151 6.93493
1043 1 11.8035 5.11855 4.58278
1044 1 11.8035 6.81974 6.93493
1063 1 10.3302 7.67033 4.58278
1064 1 10.3302 9.37151 6.93493
1263 1 13.2767 7.67033 4.58278
1264 1 13.2767 9.37151 6.93493
1243 1 14.75 5.11855 4.58278
1244 1 14.75 6.81974 6.93493
1443 1 17.6965 5.11855 4.58278
1444 1 17.6965 6.81974 6.93493
1463 1 16.2233 7.67033 4.58278
1464 1 16.2233 9.37151 6.93493
1663 1 19.1698 7.67033 4.58278
1664 1 19.1698 9.37151 6.93493
1643 1 20.6431 5.11855 4.58278
1644 1 20.6431 6.81974 6.93493
1843 1 23.5896 5.11855 4.58278
1844 1 23.5896 6.81974 6.93493
1863 1 22.1163 7.67033 4.58278
1864 1 22.1163 9.37151 6.93493
83 1 23.5896 10.2221 4.58278
84 1 -5.87573 11.9233 6.93493
103 1 22.1164 12.7739 4.58278
104 1 -7.34899 14.4751 6.93493
283 1 -2.9292 10.2221 4.58278
284 1 -2.92919 11.9233 6.93493
303 1 -4.40246 12.7739 4.58278
304 1 -4.40246 14.4751 6.93493
503 1 -1.45593 12.7739 4.58278
504 1 -1.45592 14.4751 6.93493
483 1 0.0173381 10.2221 4.58278
484 1 0.0173401 11.9233 6.93493
683 1 2.96387 10.2221 4.58278
684 1 2.96387 11.9233 6.93493
703 1 1.49061 12.7739 4.58278
704 1 1.49061 14.4751 6.93493
903 1 4.43714 12.7739 4.58278
904 1 4.43714 14.4751 6.93493
883 1 5.91041 10.2221 4.58278
884 1 5.91041 11.9233 6.93493
1083 1 8.85694 10.2221 4.58278
1084 1 8.85694 11.9233 6.93493
1103 1 7.38368 12.7739 4.58278
1104 1 7.38368 14.4751 6.93493
1283 1 11.8035 10.2221 4.58278
1284 1 11.8035 11.9233 6.93493
1303 1 10.3302 12.7739 4.58278
1304 1 10.3302 14.4751 6.93493
1503 1 13.2767 12.7739 4.58278
1504 1 13.2767 14.4751 6.93493
1483 1 14.75 10.2221 4.58278
1484 1 14.75 11.9233 6.93493
1683 1 17.6965 10.2221 4.58278
1684 1 17.6965 11.9233 6.93493
1703 1 16.2233 12.7739 4.58278
1704 1 16.2233 14.4751 6.93493
1903 1 19.1698 12.7739 4.58278
1904 1 19.1698 14.4751 6.93493
1883 1 20.6431 10.2221 4.58278
1884 1 20.6431 11.9233 6.93493
143 1 19.1698 17.8774 4.58278
144 1 -10.2955 19.5786 6.93493
123 1 20.6431 15.3256 4.58278
124 1 -8.82226 17.0268 6.93493
323 1 -5.87573 15.3256 4.58278
324 1 -5.87572 17.0268 6.93493
343 1 -7.34899 17.8774 4.58278
344 1 -7.34899 19.5786 6.93493
523 1 -2.92919 15.3256 4.58278
524 1 -2.92919 17.0268 6.93493
543 1 -4.40246 17.8774 4.58278
544 1 -4.40245 19.5786 6.93493
743 1 -1.45592 17.8774 4.58278
744 1 -1.45592 19.5786 6.93493
723 1 0.0173436 15.3256 4.58278
724 1 0.0173456 17.0268 6.93493
923 1 2.96388 15.3256 4.58278
924 1 2.96388 17.0268 6.93493
943 1 1.49061 17.8774 4.58278
944 1 1.49062 19.5786 6.93493
1143 1 4.43715 17.8774 4.58278
1144 1 4.43715 19.5786 6.93493
1123 1 5.91041 15.3256 4.58278
1124 1 5.91041 17.0268 6.93493
1323 1 8.85695 15.3256 4.58278
1324 1 8.85695 17.0268 6.93493
1343 1 7.38368 17.8774 4.58278
1344 1 7.38368 19.5786 6.93493
1523 1 11.8035 15.3256 4.58278
1524 1 11.8035 17.0268 6.93493
1543 1 10.3302 17.8774 4.58278
1544 1 10.3302 19.5786 6.93493
1743 1 13.2768 17.8774 4.58278
1744 1 13.2768 19.5786 6.93493
1723 1 14.75 15.3256 4.58278
1724 1 14.75 17.0268 6.93493
1923 1 17.6966 15.3256 4.58278
1924 1 17.6966 17.0268 6.93493
1943 1 16.2233 17.8774 4.58278
1944 1 16.2233 19.5786 6.93493
163 1 17.6966 20.4292 4.58278
164 1 -11.7688 22.1304 6.93493
183 1 16.2233 22.981 4.58278
184 1 -13.2421 24.6822 6.93493
383 1 -10.2955 22.981 4.58278
384 1 -10.2955 24.6822 6.93493
363 1 -8.82225 20.4292 4.58278
364 1 -8.82225 22.1304 6.93493
563 1 -5.87572 20.4292 4.58278
564 1 -5.87572 22.1304 6.93493
583 1 -7.34898 22.981 4.58278
584 1 -7.34898 24.6822 6.93493
763 1 -2.92919 20.4292 4.58278
764 1 -2.92918 22.1304 6.93493
783 1 -4.40245 22.981 4.58278
784 1 -4.40245 24.6822 6.93493
983 1 -1.45592 22.981 4.58278
984 1 -1.45591 24.6822 6.93493
963 1 0.0173491 20.4292 4.58278
964 1 0.0173511 22.1304 6.93493
1163 1 2.96388 20.4292 4.58278
1164 1 2.96389 22.1304 6.93493
1183 1 1.49062 22.981 4.58278
1184 1 1.49062 24.6822 6.93493
1383 1 4.43715 22.981 4.58278
1384 1 4.43716 24.6822 6.93493
1363 1 5.91042 20.4292 4.58278
1364 1 5.91042 22.1304 6.93493
1563 1 8.85695 20.4292 4.58278
1564 1 8.85695 22.1304 6.93493
1583 1 7.38369 22.981 4.58278
1584 1 7.38369 24.6822 6.93493
1763 1 11.8035 20.4292 4.58278
1764 1 11.8035 22.1304 6.93493
1783 1 10.3302 22.981 4.58278
1784 1 10.3302 24.6822 6.93493
1983 1 13.2768 22.981 4.58278
1984 1 13.2768 24.6822 6.93493
1963 1 14.75 20.4292 4.58278
1964 1 14.75 22.1304 6.93493
25 1 28.0094 2.56678 9.28708
26 1 -1.45594 4.26796 11.6392
5 1 14.75 25.5327 9.28708
6 1 0.0173291 1.71619 11.6392
205 1 -11.7688 25.5327 9.28708
206 1 2.96386 1.71619 11.6392
225 1 1.4906 2.56678 9.28708
226 1 1.4906 4.26796 11.6392
425 1 4.43713 2.56678 9.28708
426 1 4.43713 4.26796 11.6392
405 1 -8.82225 25.5327 9.28708
406 1 5.9104 1.71619 11.6392
605 1 -5.87571 25.5327 9.28708
606 1 8.85693 1.71619 11.6392
625 1 7.38367 2.56678 9.28708
626 1 7.38367 4.26796 11.6392
805 1 -2.92918 25.5327 9.28708
806 1 11.8035 1.71619 11.6392
825 1 10.3302 2.56678 9.28708
826 1 10.3302 4.26796 11.6392
1025 1 13.2767 2.56678 9.28708
1026 1 13.2767 4.26796 11.6392
1005 1 0.0173546 25.5327 9.28708
1006 1 14.75 1.71619 11.6392
1205 1 2.96389 25.5327 9.28708
1206 1 17.6965 1.71619 11.6392
1225 1 16.2233 2.56678 9.28708
1226 1 16.2233 4.26796 11.6392
1425 1 19.1698 2.56678 9.28708
1426 1 19.1698 4.26796 11.6392
1405 1 5.91042 25.5327 9.28708
1406 1 20.6431 1.71619 11.6392
1605 1 8.85696 25.5327 9.28708
1606 1 23.5896 1.71619 11.6392
1625 1 22.1163 2.56678 9.28708
1626 1 22.1163 4.26796 11.6392
1805 1 11.8035 25.5327 9.28708
1806 1 26.5361 1.71619 11.6392
1825 1 25.0629 2.56678 9.28708
1826 1 25.0629 4.26796 11.6392
45 1 26.5361 5.11855 9.28708
46 1 -2.9292 6.81974 11.6392
65 1 25.0629 7.67033 9.28708
66 1 -4.40246 9.37151 11.6392
265 1 -1.45593 7.67033 9.28708
266 1 -1.45593 9.37151 11.6392
245 1 0.0173326 5.11855 9.28708
246 1 0.0173346 6.81974 11.6392
445 1 2.96387 5.11855 9.28708
446 1 2.96387 6.81974 11.6392
465 1 1.4906 7.67033 9.28708
466 1 1.4906 9.37151 11.6392
665 1 4.43714 7.67033 9.28708
666 1 4.43714 9.37151 11.6392
645 1 5.9104 5.11855 9.28708
646 1 5.9104 6.81974 11.6392
845 1 8.85694 5.11855 9.28708
846 1 8.85694 6.81974 11.6392
865 1 7.38367 7.67033 9.28708
866 1 7.38367 9.37151 11.6392
1045 1 11.8035 5.11855 9.28708
1046 1 11.8035 6.81974 11.6392
1065 1 10.3302 7.67033 9.28708
1066 1 10.3302 9.37151 11.6392
1265 1 13.2767 7.67033 9.28708
1266 1 13.2767 9.37151 11.6392
1245 1 14.75 5.11855 9.28708
1246 1 14.75 6.81974 11.6392
1445 1 17.6965 5.11855 9.28708
1446 1 17.6965 6.81974 11.6392
1465 1 16.2233 7.67033 9.28708
1466 1 16.2233 9.37151 11.6392
1665 1 19.1698 7.67033 9.28708
1666 1 19.1698 9.37151 11.6392
1645 1 20.6431 5.11855 9.28708
1646 1 20.6431 6.81974 11.6392
1845 1 23.5896 5.11855 9.28708
1846 1 23.5896 6.81974 11.6392
1865 1 22.1163 7.67033 9.28708
1866 1 22.1163 9.37151 11.6392
85 1 23.5896 10.2221 9.28708
86 1 -5.87573 11.9233 11.6392
105 1 22.1164 12.7739 9.28708
106 1 -7.34899 14.4751 11.6392
285 1 -2.9292 10.2221 9.28708
286 1 -2.92919 11.9233 11.6392
305 1 -4.40246 12.7739 9.28708
306 1 -4.40246 14.4751 11.6392
505 1 -1.45593 12.7739 9.28708
506 1 -1.45592 14.4751 11.6392
485 1 0.0173381 10.2221 9.28708
486 1 0.0173401 11.9233 11.6392
685 1 2.96387 10.2221 9.28708
686 1 2.96387 11.9233 11.6392
705 1 1.49061 12.7739 9.28708
706 1 1.49061 14.4751 11.6392
905 1 4.43714 12.7739 9.28708
906 1 4.43714 14.4751 11.6392
885 1 5.91041 10.2221 9.28708
886 1 5.91041 11.9233 11.6392
1085 1 8.85694 10.2221 9.28708
1086 1 8.85694 11.9233 11.6392
1105 1 7.38368 12.7739 9.28708
1106 1 7.38368 14.4751 11.6392
1285 1 11.8035 10.2221 9.28708
1286 1 11.8035 11.9233 11.6392
1305 1 10.3302 12.7739 9.28708
1306 1 10.3302 14.4751 11.6392
1505 1 13.2767 12.7739 9.28708
1506 1 13.2767 14.4751 11.6392
1485 1 14.75 10.2221 9.28708
1486 1 14.75 11.9233 11.6392
1685 1 17.6965 10.2221 9.28708
1686 1 17.6965 11.9233 11.6392
1705 1 16.2233 12.7739 9.28708
1706 1 16.2233 14.4751 11.6392
1905 1 19.1698 12.7739 9.28708
1906 1 19.1698 14.4751 11.6392
1885 1 20.6431 10.2221 9.28708
1886 1 20.6431 11.9233 11.6392
145 1 19.1698 17.8774 9.28708
146 1 -10.2955 19.5786 11.6392
125 1 20.6431 15.3256 9.28708
126 1 -8.82226 17.0268 11.6392
325 1 -5.87573 15.3256 9.28708
326 1 -5.87572 17.0268 11.6392
345 1 -7.34899 17.8774 9.28708
346 1 -7.34899 19.5786 11.6392
525 1 -2.92919 15.3256 9.28708
526 1 -2.92919 17.0268 11.6392
545 1 -4.40246 17.8774 9.28708
546 1 -4.40245 19.5786 11.6392
745 1 -1.45592 17.8774 9.28708
746 1 -1.45592 19.5786 11.6392
725 1 0.0173436 15.3256 9.28708
726 1 0.0173456 17.0268 11.6392
925 1 2.96388 15.3256 9.28708
926 1 2.96388 17.0268 11.6392
945 1 1.49061 17.8774 9.28708
946 1 1.49062 19.5786 11.6392
1145 1 4.43715 17.8774 9.28708
1146 1 4.43715 19.5786 11.6392
1125 1 5.91041 15.3256 9.28708
1126 1 5.91041 17.0268 11.6392
1325 1 8.85695 15.3256 9.28708
1326 1 8.85695 17.0268 11.6392
1345 1 7.38368 17.8774 9.28708
1346 1 7.38368 19.5786 11.6392
1525 1 11.8035 15.3256 9.28708
1526 1 11.8035 17.0268 11.6392
1545 1 10.3302 17.8774 9.28708
1546 1 10.3302 19.5786 11.6392
1745 1 13.2768 17.8774 9.28708
1746 1 13.2768 19.5786 11.6392
1725 1 14.75 15.3256 9.28708
1726 1 14.75 17.0268 11.6392
1925 1 17.6966 15.3256 9.28708
1926 1 17.6966 17.0268 11.6392
1945 1 16.2233 17.8774 9.28708
1946 1 16.2233 19.5786 11.6392
165 1 17.6966 20.4292 9.28708
166 1 -11.7688 22.1304 11.6392
185 1 16.2233 22.981 9.28708
186 1 -13.2421 24.6822 11.6392
385 1 -10.2955 22.981 9.28708
386 1 -10.2955 24.6822 11.6392
365 1 -8.82225 20.4292 9.28708
366 1 -8.82225 22.1304 11.6392
565 1 -5.87572 20.4292 9.28708
566 1 -5.87572 22.1304 11.6392
585 1 -7.34898 22.981 9.28708
586 1 -7.34898 24.6822 11.6392
765 1 -2.92919 20.4292 9.28708
766 1 -2.92918 22.1304 11.6392
785 1 -4.40245 22.981 9.28708
786 1 -4.40245 24.6822 11.6392
985 1 -1.45592 22.981 9.28708
986 1 -1.45591 24.6822 11.6392
965 1 0.0173491 20.4292 9.28708
966 1 0.0173511 22.1304 11.6392
1165 1 2.96388 20.4292 9.28708
1166 1 2.96389 22.1304 11.6392
1185 1 1.49062 22.981 9.28708
1186 1 1.49062 24.6822 11.6392
1385 1 4.43715 22.981 9.28708
1386 1 4.43716 24.6822 11.6392
1365 1 5.91042 20.4292 9.28708
1366 1 5.91042 22.1304 11.6392
1565 1 8.85695 20.4292 9.28708
1566 1 8.85695 22.1304 11.6392
1585 1 7.38369 22.981 9.28708
1586 1 7.38369 24.6822 11.6392
1765 1 11.8035 20.4292 9.28708
1766 1 11.8035 22.1304 11.6392
1785 1 10.3302 22.981 9.28708
1786 1 10.3302 24.6822 11.6392
1985 1 13.2768 22.981 9.28708
1986 1 13.2768 24.6822 11.6392
1965 1 14.75 20.4292 9.28708
1966 1 14.75 22.1304 11.6392
27 1 28.0094 2.56678 13.9914
28 1 -1.45594 4.26796 16.3435
7 1 14.75 25.5327 13.9914
8 1 0.0173291 1.71619 16.3435
207 1 -11.7688 25.5327 13.9914
208 1 2.96386 1.71619 16.3435
227 1 1.4906 2.56678 13.9914
228 1 1.4906 4.26796 16.3435
427 1 4.43713 2.56678 13.9914
428 1 4.43713 4.26796 16.3435
407 1 -8.82225 25.5327 13.9914
408 1 5.9104 1.71619 16.3435
607 1 -5.87571 25.5327 13.9914
608 1 8.85693 1.71619 16.3435
627 1 7.38367 2.56678 13.9914
628 1 7.38367 4.26796 16.3435
807 1 -2.92918 25.5327 13.9914
808 1 11.8035 1.71619 16.3435
827 1 10.3302 2.56678 13.9914
828 1 10.3302 4.26796 16.3435
1027 1 13.2767 2.56678 13.9914
1028 1 13.2767 4.26796 16.3435
1007 1 0.0173546 25.5327 13.9914
1008 1 14.75 1.71619 16.3435
1207 1 2.96389 25.5327 13.9914
1208 1 17.6965 1.71619 16.3435
1227 1 16.2233 2.56678 13.9914
1228 1 16.2233 4.26796 16.3435
1427 1 19.1698 2.56678 13.9914
1428 1 19.1698 4.26796 16.3435
1407 1 5.91042 25.5327 13.9914
1408 1 20.6431 1.71619 16.3435
1607 1 8.85696 25.5327 13.9914
1608 1 23.5896 1.71619 16.3435
1627 1 22.1163 2.56678 13.9914
1628 1 22.1163 4.26796 16.3435
1807 1 11.8035 25.5327 13.9914
1808 1 26.5361 1.71619 16.3435
1827 1 25.0629 2.56678 13.9914
1828 1 25.0629 4.26796 16.3435
47 1 26.5361 5.11855 13.9914
48 1 -2.9292 6.81974 16.3435
67 1 25.0629 7.67033 13.9914
68 1 -4.40246 9.37151 16.3435
267 1 -1.45593 7.67033 13.9914
268 1 -1.45593 9.37151 16.3435
247 1 0.0173326 5.11855 13.9914
248 1 0.0173346 6.81974 16.3435
447 1 2.96387 5.11855 13.9914
448 1 2.96387 6.81974 16.3435
467 1 1.4906 7.67033 13.9914
468 1 1.4906 9.37151 16.3435
667 1 4.43714 7.67033 13.9914
668 1 4.43714 9.37151 16.3435
647 1 5.9104 5.11855 13.9914
648 1 5.9104 6.81974 16.3435
847 1 8.85694 5.11855 13.9914
848 1 8.85694 6.81974 16.3435
867 1 7.38367 7.67033 13.9914
868 1 7.38367 9.37151 16.3435
1047 1 11.8035 5.11855 13.9914
1048 1 11.8035 6.81974 16.3435
1067 1 10.3302 7.67033 13.9914
1068 1 10.3302 9.37151 16.3435
1267 1 13.2767 7.67033 13.9914
1268 1 13.2767 9.37151 16.3435
1247 1 14.75 5.11855 13.9914
1248 1 14.75 6.81974 16.3435
1447 1 17.6965 5.11855 13.9914
1448 1 17.6965 6.81974 16.3435
1467 1 16.2233 7.67033 13.9914
1468 1 16.2233 9.37151 16.3435
1667 1 19.1698 7.67033 13.9914
1668 1 19.1698 9.37151 16.3435
1647 1 20.6431 5.11855 13.9914
1648 1 20.6431 6.81974 16.3435
1847 1 23.5896 5.11855 13.9914
1848 1 23.5896 6.81974 16.3435
1867 1 22.1163 7.67033 13.9914
1868 1 22.1163 9.37151 16.3435
87 1 23.5896 10.2221 13.9914
88 1 -5.87573 11.9233 16.3435
107 1 22.1164 12.7739 13.9914
108 1 -7.34899 14.4751 16.3435
287 1 -2.9292 10.2221 13.9914
288 1 -2.92919 11.9233 16.3435
307 1 -4.40246 12.7739 13.9914
308 1 -4.40246 14.4751 16.3435
507 1 -1.45593 12.7739 13.9914
508 1 -1.45592 14.4751 16.3435
487 1 0.0173381 10.2221 13.9914
488 1 0.0173401 11.9233 16.3435
687 1 2.96387 10.2221 13.9914
688 1 2.96387 11.9233 16.3435
707 1 1.49061 12.7739 13.9914
708 1 1.49061 14.4751 16.3435
907 1 4.43714 12.7739 13.9914
908 1 4.43714 14.4751 16.3435
887 1 5.91041 10.2221 13.9914
888 1 5.91041 11.9233 16.3435
1087 1 8.85694 10.2221 13.9914
1088 1 8.85694 11.9233 16.3435
1107 1 7.38368 12.7739 13.9914
1108 1 7.38368 14.4751 16.3435
1287 1 11.8035 10.2221 13.9914
1288 1 11.8035 11.9233 16.3435
1307 1 10.3302 12.7739 13.9914
1308 1 10.3302 14.4751 16.3435
1507 1 13.2767 12.7739 13.9914
1508 1 13.2767 14.4751 16.3435
1487 1 14.75 10.2221 13.9914
1488 1 14.75 11.9233 16.3435
1687 1 17.6965 10.2221 13.9914
1688 1 17.6965 11.9233 16.3435
1707 1 16.2233 12.7739 13.9914
1708 1 16.2233 14.4751 16.3435
1907 1 19.1698 12.7739 13.9914
1908 1 19.1698 14.4751 16.3435
1887 1 20.6431 10.2221 13.9914
1888 1 20.6431 11.9233 16.3435
147 1 19.1698 17.8774 13.9914
148 1 -10.2955 19.5786 16.3435
127 1 20.6431 15.3256 13.9914
128 1 -8.82226 17.0268 16.3435
327 1 -5.87573 15.3256 13.9914
328 1 -5.87572 17.0268 16.3435
347 1 -7.34899 17.8774 13.9914
348 1 -7.34899 19.5786 16.3435
527 1 -2.92919 15.3256 13.9914
528 1 -2.92919 17.0268 16.3435
547 1 -4.40246 17.8774 13.9914
548 1 -4.40245 19.5786 16.3435
747 1 -1.45592 17.8774 13.9914
748 1 -1.45592 19.5786 16.3435
727 1 0.0173436 15.3256 13.9914
728 1 0.0173456 17.0268 16.3435
927 1 2.96388 15.3256 13.9914
928 1 2.96388 17.0268 16.3435
947 1 1.49061 17.8774 13.9914
948 1 1.49062 19.5786 16.3435
1147 1 4.43715 17.8774 13.9914
1148 1 4.43715 19.5786 16.3435
1127 1 5.91041 15.3256 13.9914
1128 1 5.91041 17.0268 16.3435
1327 1 8.85695 15.3256 13.9914
1328 1 8.85695 17.0268 16.3435
1347 1 7.38368 17.8774 13.9914
1348 1 7.38368 19.5786 16.3435
1527 1 11.8035 15.3256 13.9914
1528 1 11.8035 17.0268 16.3435
1547 1 10.3302 17.8774 13.9914
1548 1 10.3302 19.5786 16.3435
1747 1 13.2768 17.8774 13.9914
1748 1 13.2768 19.5786 16.3435
1727 1 14.75 15.3256 13.9914
1728 1 14.75 17.0268 16.3435
1927 1 17.6966 15.3256 13.9914
1928 1 17.6966 17.0268 16.3435
1947 1 16.2233 17.8774 13.9914
1948 1 16.2233 19.5786 16.3435
167 1 17.6966 20.4292 13.9914
168 1 -11.7688 22.1304 16.3435
187 1 16.2233 22.981 13.9914
188 1 -13.2421 24.6822 16.3435
387 1 -10.2955 22.981 13.9914
388 1 -10.2955 24.6822 16.3435
367 1 -8.82225 20.4292 13.9914
368 1 -8.82225 22.1304 16.3435
567 1 -5.87572 20.4292 13.9914
568 1 -5.87572 22.1304 16.3435
587 1 -7.34898 22.981 13.9914
588 1 -7.34898 24.6822 16.3435
767 1 -2.92919 20.4292 13.9914
768 1 -2.92918 22.1304 16.3435
787 1 -4.40245 22.981 13.9914
788 1 -4.40245 24.6822 16.3435
987 1 -1.45592 22.981 13.9914
988 1 -1.45591 24.6822 16.3435
967 1 0.0173491 20.4292 13.9914
968 1 0.0173511 22.1304 16.3435
1167 1 2.96388 20.4292 13.9914
1168 1 2.96389 22.1304 16.3435
1187 1 1.49062 22.981 13.9914
1188 1 1.49062 24.6822 16.3435
1387 1 4.43715 22.981 13.9914
1388 1 4.43716 24.6822 16.3435
1367 1 5.91042 20.4292 13.9914
1368 1 5.91042 22.1304 16.3435
1567 1 8.85695 20.4292 13.9914
1568 1 8.85695 22.1304 16.3435
1587 1 7.38369 22.981 13.9914
1588 1 7.38369 24.6822 16.3435
1767 1 11.8035 20.4292 13.9914
1768 1 11.8035 22.1304 16.3435
1787 1 10.3302 22.981 13.9914
1788 1 10.3302 24.6822 16.3435
1987 1 13.2768 22.981 13.9914
1988 1 13.2768 24.6822 16.3435
1967 1 14.75 20.4292 13.9914
1968 1 14.75 22.1304 16.3435
29 1 28.0094 2.56678 18.6957
30 1 -1.45594 4.26796 21.0478
9 1 14.75 25.5327 18.6957
10 1 0.0173291 1.71619 21.0478
209 1 -11.7688 25.5327 18.6957
210 1 2.96386 1.71619 21.0478
229 1 1.4906 2.56678 18.6957
230 1 1.4906 4.26796 21.0478
429 1 4.43713 2.56678 18.6957
430 1 4.43713 4.26796 21.0478
409 1 -8.82225 25.5327 18.6957
410 1 5.9104 1.71619 21.0478
609 1 -5.87571 25.5327 18.6957
610 1 8.85693 1.71619 21.0478
629 1 7.38367 2.56678 18.6957
630 1 7.38367 4.26796 21.0478
809 1 -2.92918 25.5327 18.6957
810 1 11.8035 1.71619 21.0478
829 1 10.3302 2.56678 18.6957
830 1 10.3302 4.26796 21.0478
1029 1 13.2767 2.56678 18.6957
1030 1 13.2767 4.26796 21.0478
1009 1 0.0173546 25.5327 18.6957
1010 1 14.75 1.71619 21.0478
1209 1 2.96389 25.5327 18.6957
1210 1 17.6965 1.71619 21.0478
1229 1 16.2233 2.56678 18.6957
1230 1 16.2233 4.26796 21.0478
1429 1 19.1698 2.56678 18.6957
1430 1 19.1698 4.26796 21.0478
1409 1 5.91042 25.5327 18.6957
1410 1 20.6431 1.71619 21.0478
1609 1 8.85696 25.5327 18.6957
1610 1 23.5896 1.71619 21.0478
1629 1 22.1163 2.56678 18.6957
1630 1 22.1163 4.26796 21.0478
1809 1 11.8035 25.5327 18.6957
1810 1 26.5361 1.71619 21.0478
1829 1 25.0629 2.56678 18.6957
1830 1 25.0629 4.26796 21.0478
49 1 26.5361 5.11855 18.6957
50 1 -2.9292 6.81974 21.0478
69 1 25.0629 7.67033 18.6957
70 1 -4.40246 9.37151 21.0478
269 1 -1.45593 7.67033 18.6957
270 1 -1.45593 9.37151 21.0478
249 1 0.0173326 5.11855 18.6957
250 1 0.0173346 6.81974 21.0478
449 1 2.96387 5.11855 18.6957
450 1 2.96387 6.81974 21.0478
469 1 1.4906 7.67033 18.6957
470 1 1.4906 9.37151 21.0478
669 1 4.43714 7.67033 18.6957
670 1 4.43714 9.37151 21.0478
649 1 5.9104 5.11855 18.6957
650 1 5.9104 6.81974 21.0478
849 1 8.85694 5.11855 18.6957
850 1 8.85694 6.81974 21.0478
869 1 7.38367 7.67033 18.6957
870 1 7.38367 9.37151 21.0478
1049 1 11.8035 5.11855 18.6957
1050 1 11.8035 6.81974 21.0478
1069 1 10.3302 7.67033 18.6957
1070 1 10.3302 9.37151 21.0478
1269 1 13.2767 7.67033 18.6957
1270 1 13.2767 9.37151 21.0478
1249 1 14.75 5.11855 18.6957
1250 1 14.75 6.81974 21.0478
1449 1 17.6965 5.11855 18.6957
1450 1 17.6965 6.81974 21.0478
1469 1 16.2233 7.67033 18.6957
1470 1 16.2233 9.37151 21.0478
1669 1 19.1698 7.67033 18.6957
1670 1 19.1698 9.37151 21.0478
1649 1 20.6431 5.11855 18.6957
1650 1 20.6431 6.81974 21.0478
1849 1 23.5896 5.11855 18.6957
1850 1 23.5896 6.81974 21.0478
1869 1 22.1163 7.67033 18.6957
1870 1 22.1163 9.37151 21.0478
89 1 23.5896 10.2221 18.6957
90 1 -5.87573 11.9233 21.0478
109 1 22.1164 12.7739 18.6957
110 1 -7.34899 14.4751 21.0478
289 1 -2.9292 10.2221 18.6957
290 1 -2.92919 11.9233 21.0478
309 1 -4.40246 12.7739 18.6957
310 1 -4.40246 14.4751 21.0478
509 1 -1.45593 12.7739 18.6957
510 1 -1.45592 14.4751 21.0478
489 1 0.0173381 10.2221 18.6957
490 1 0.0173401 11.9233 21.0478
689 1 2.96387 10.2221 18.6957
690 1 2.96387 11.9233 21.0478
709 1 1.49061 12.7739 18.6957
710 1 1.49061 14.4751 21.0478
909 1 4.43714 12.7739 18.6957
910 1 4.43714 14.4751 21.0478
889 1 5.91041 10.2221 18.6957
890 1 5.91041 11.9233 21.0478
1089 1 8.85694 10.2221 18.6957
1090 1 8.85694 11.9233 21.0478
1109 1 7.38368 12.7739 18.6957
1110 1 7.38368 14.4751 21.0478
1289 1 11.8035 10.2221 18.6957
1290 1 11.8035 11.9233 21.0478
1309 1 10.3302 12.7739 18.6957
1310 1 10.3302 14.4751 21.0478
1509 1 13.2767 12.7739 18.6957
1510 1 13.2767 14.4751 21.0478
1489 1 14.75 10.2221 18.6957
1490 1 14.75 11.9233 21.0478
1689 1 17.6965 10.2221 18.6957
1690 1 17.6965 11.9233 21.0478
1709 1 16.2233 12.7739 18.6957
1710 1 16.2233 14.4751 21.0478
1909 1 19.1698 12.7739 18.6957
1910 1 19.1698 14.4751 21.0478
1889 1 20.6431 10.2221 18.6957
1890 1 20.6431 11.9233 21.0478
149 1 19.1698 17.8774 18.6957
150 1 -10.2955 19.5786 21.0478
129 1 20.6431 15.3256 18.6957
130 1 -8.82226 17.0268 21.0478
329 1 -5.87573 15.3256 18.6957
330 1 -5.87572 17.0268 21.0478
349 1 -7.34899 17.8774 18.6957
350 1 -7.34899 19.5786 21.0478
529 1 -2.92919 15.3256 18.6957
530 1 -2.92919 17.0268 21.0478
549 1 -4.40246 17.8774 18.6957
550 1 -4.40245 19.5786 21.0478
749 1 -1.45592 17.8774 18.6957
750 1 -1.45592 19.5786 21.0478
729 1 0.0173436 15.3256 18.6957
730 1 0.0173456 17.0268 21.0478
929 1 2.96388 15.3256 18.6957
930 1 2.96388 17.0268 21.0478
949 1 1.49061 17.8774 18.6957
950 1 1.49062 19.5786 21.0478
1149 1 4.43715 17.8774 18.6957
1150 1 4.43715 19.5786 21.0478
1129 1 5.91041 15.3256 18.6957
1130 1 5.91041 17.0268 21.0478
1329 1 8.85695 15.3256 18.6957
1330 1 8.85695 17.0268 21.0478
1349 1 7.38368 17.8774 18.6957
1350 1 7.38368 19.5786 21.0478
1529 1 11.8035 15.3256 18.6957
1530 1 11.8035 17.0268 21.0478
1549 1 10.3302 17.8774 18.6957
1550 1 10.3302 19.5786 21.0478
1749 1 13.2768 17.8774 18.6957
1750 1 13.2768 19.5786 21.0478
1729 1 14.75 15.3256 18.6957
1730 1 14.75 17.0268 21.0478
1929 1 17.6966 15.3256 18.6957
1930 1 17.6966 17.0268 21.0478
1949 1 16.2233 17.8774 18.6957
1950 1 16.2233 19.5786 21.0478
169 1 17.6966 20.4292 18.6957
170 1 -11.7688 22.1304 21.0478
189 1 16.2233 22.981 18.6957
190 1 -13.2421 24.6822 21.0478
389 1 -10.2955 22.981 18.6957
390 1 -10.2955 24.6822 21.0478
369 1 -8.82225 20.4292 18.6957
370 1 -8.82225 22.1304 21.0478
569 1 -5.87572 20.4292 18.6957
570 1 -5.87572 22.1304 21.0478
589 1 -7.34898 22.981 18.6957
590 1 -7.34898 24.6822 21.0478
769 1 -2.92919 20.4292 18.6957
770 1 -2.92918 22.1304 21.0478
789 1 -4.40245 22.981 18.6957
790 1 -4.40245 24.6822 21.0478
989 1 -1.45592 22.981 18.6957
990 1 -1.45591 24.6822 21.0478
969 1 0.0173491 20.4292 18.6957
970 1 0.0173511 22.1304 21.0478
1169 1 2.96388 20.4292 18.6957
1170 1 2.96389 22.1304 21.0478
1189 1 1.49062 22.981 18.6957
1190 1 1.49062 24.6822 21.0478
1389 1 4.43715 22.981 18.6957
1390 1 4.43716 24.6822 21.0478
1369 1 5.91042 20.4292 18.6957
1370 1 5.91042 22.1304 21.0478
1569 1 8.85695 20.4292 18.6957
1570 1 8.85695 22.1304 21.0478
1589 1 7.38369 22.981 18.6957
1590 1 7.38369 24.6822 21.0478
1769 1 11.8035 20.4292 18.6957
1770 1 11.8035 22.1304 21.0478
1789 1 10.3302 22.981 18.6957
1790 1 10.3302 24.6822 21.0478
1989 1 13.2768 22.981 18.6957
1990 1 13.2768 24.6822 21.0478
1969 1 14.75 20.4292 18.6957
1970 1 14.75 22.1304 21.0478
31 1 28.0094 2.56678 23.4
32 1 -1.45594 4.26796 25.7522
11 1 14.75 25.5327 23.4
12 1 0.0173291 1.71619 25.7522
211 1 -11.7688 25.5327 23.4
212 1 2.96386 1.71619 25.7522
231 1 1.4906 2.56678 23.4
232 1 1.4906 4.26796 25.7522
431 1 4.43713 2.56678 23.4
432 1 4.43713 4.26796 25.7522
411 1 -8.82225 25.5327 23.4
412 1 5.9104 1.71619 25.7522
611 1 -5.87571 25.5327 23.4
612 1 8.85693 1.71619 25.7522
631 1 7.38367 2.56678 23.4
632 1 7.38367 4.26796 25.7522
811 1 -2.92918 25.5327 23.4
812 1 11.8035 1.71619 25.7522
831 1 10.3302 2.56678 23.4
832 1 10.3302 4.26796 25.7522
1031 1 13.2767 2.56678 23.4
1032 1 13.2767 4.26796 25.7522
1011 1 0.0173546 25.5327 23.4
1012 1 14.75 1.71619 25.7522
1211 1 2.96389 25.5327 23.4
1212 1 17.6965 1.71619 25.7522
1231 1 16.2233 2.56678 23.4
1232 1 16.2233 4.26796 25.7522
1431 1 19.1698 2.56678 23.4
1432 1 19.1698 4.26796 25.7522
1411 1 5.91042 25.5327 23.4
1412 1 20.6431 1.71619 25.7522
1611 1 8.85696 25.5327 23.4
1612 1 23.5896 1.71619 25.7522
1631 1 22.1163 2.56678 23.4
1632 1 22.1163 4.26796 25.7522
1811 1 11.8035 25.5327 23.4
1812 1 26.5361 1.71619 25.7522
1831 1 25.0629 2.56678 23.4
1832 1 25.0629 4.26796 25.7522
51 1 26.5361 5.11855 23.4
52 1 -2.9292 6.81974 25.7522
71 1 25.0629 7.67033 23.4
72 1 -4.40246 9.37151 25.7522
271 1 -1.45593 7.67033 23.4
272 1 -1.45593 9.37151 25.7522
251 1 0.0173326 5.11855 23.4
252 1 0.0173346 6.81974 25.7522
451 1 2.96387 5.11855 23.4
452 1 2.96387 6.81974 25.7522
471 1 1.4906 7.67033 23.4
472 1 1.4906 9.37151 25.7522
671 1 4.43714 7.67033 23.4
672 1 4.43714 9.37151 25.7522
651 1 5.9104 5.11855 23.4
652 1 5.9104 6.81974 25.7522
851 1 8.85694 5.11855 23.4
852 1 8.85694 6.81974 25.7522
871 1 7.38367 7.67033 23.4
872 1 7.38367 9.37151 25.7522
1051 1 11.8035 5.11855 23.4
1052 1 11.8035 6.81974 25.7522
1071 1 10.3302 7.67033 23.4
1072 1 10.3302 9.37151 25.7522
1271 1 13.2767 7.67033 23.4
1272 1 13.2767 9.37151 25.7522
1251 1 14.75 5.11855 23.4
1252 1 14.75 6.81974 25.7522
1451 1 17.6965 5.11855 23.4
1452 1 17.6965 6.81974 25.7522
1471 1 16.2233 7.67033 23.4
1472 1 16.2233 9.37151 25.7522
1671 1 19.1698 7.67033 23.4
1672 1 19.1698 9.37151 25.7522
1651 1 20.6431 5.11855 23.4
1652 1 20.6431 6.81974 25.7522
1851 1 23.5896 5.11855 23.4
1852 1 23.5896 6.81974 25.7522
1871 1 22.1163 7.67033 23.4
1872 1 22.1163 9.37151 25.7522
91 1 23.5896 10.2221 23.4
92 1 -5.87573 11.9233 25.7522
111 1 22.1164 12.7739 23.4
112 1 -7.34899 14.4751 25.7522
291 1 -2.9292 10.2221 23.4
292 1 -2.92919 11.9233 25.7522
311 1 -4.40246 12.7739 23.4
312 1 -4.40246 14.4751 25.7522
511 1 -1.45593 12.7739 23.4
512 1 -1.45592 14.4751 25.7522
491 1 0.0173381 10.2221 23.4
492 1 0.0173401 11.9233 25.7522
691 1 2.96387 10.2221 23.4
692 1 2.96387 11.9233 25.7522
711 1 1.49061 12.7739 23.4
712 1 1.49061 14.4751 25.7522
911 1 4.43714 12.7739 23.4
912 1 4.43714 14.4751 25.7522
891 1 5.91041 10.2221 23.4
892 1 5.91041 11.9233 25.7522
1091 1 8.85694 10.2221 23.4
1092 1 8.85694 11.9233 25.7522
1111 1 7.38368 12.7739 23.4
1112 1 7.38368 14.4751 25.7522
1291 1 11.8035 10.2221 23.4
1292 1 11.8035 11.9233 25.7522
1311 1 10.3302 12.7739 23.4
1312 1 10.3302 14.4751 25.7522
1511 1 13.2767 12.7739 23.4
1512 1 13.2767 14.4751 25.7522
1491 1 14.75 10.2221 23.4
1492 1 14.75 11.9233 25.7522
1691 1 17.6965 10.2221 23.4
1692 1 17.6965 11.9233 25.7522
1711 1 16.2233 12.7739 23.4
1712 1 16.2233 14.4751 25.7522
1911 1 19.1698 12.7739 23.4
1912 1 19.1698 14.4751 25.7522
1891 1 20.6431 10.2221 23.4
1892 1 20.6431 11.9233 25.7522
151 1 19.1698 17.8774 23.4
152 1 -10.2955 19.5786 25.7522
131 1 20.6431 15.3256 23.4
132 1 -8.82226 17.0268 25.7522
331 1 -5.87573 15.3256 23.4
332 1 -5.87572 17.0268 25.7522
351 1 -7.34899 17.8774 23.4
352 1 -7.34899 19.5786 25.7522
531 1 -2.92919 15.3256 23.4
532 1 -2.92919 17.0268 25.7522
551 1 -4.40246 17.8774 23.4
552 1 -4.40245 19.5786 25.7522
751 1 -1.45592 17.8774 23.4
752 1 -1.45592 19.5786 25.7522
731 1 0.0173436 15.3256 23.4
732 1 0.0173456 17.0268 25.7522
931 1 2.96388 15.3256 23.4
932 1 2.96388 17.0268 25.7522
951 1 1.49061 17.8774 23.4
952 1 1.49062 19.5786 25.7522
1151 1 4.43715 17.8774 23.4
1152 1 4.43715 19.5786 25.7522
1131 1 5.91041 15.3256 23.4
1132 1 5.91041 17.0268 25.7522
1331 1 8.85695 15.3256 23.4
1332 1 8.85695 17.0268 25.7522
1351 1 7.38368 17.8774 23.4
1352 1 7.38368 19.5786 25.7522
1531 1 11.8035 15.3256 23.4
1532 1 11.8035 17.0268 25.7522
1551 1 10.3302 17.8774 23.4
1552 1 10.3302 19.5786 25.7522
1751 1 13.2768 17.8774 23.4
1752 1 13.2768 19.5786 25.7522
1731 1 14.75 15.3256 23.4
1732 1 14.75 17.0268 25.7522
1931 1 17.6966 15.3256 23.4
1932 1 17.6966 17.0268 25.7522
1951 1 16.2233 17.8774 23.4
1952 1 16.2233 19.5786 25.7522
171 1 17.6966 20.4292 23.4
172 1 -11.7688 22.1304 25.7522
191 1 16.2233 22.981 23.4
192 1 -13.2421 24.6822 25.7522
391 1 -10.2955 22.981 23.4
392 1 -10.2955 24.6822 25.7522
371 1 -8.82225 20.4292 23.4
372 1 -8.82225 22.1304 25.7522
571 1 -5.87572 20.4292 23.4
572 1 -5.87572 22.1304 25.7522
591 1 -7.34898 22.981 23.4
592 1 -7.34898 24.6822 25.7522
771 1 -2.92919 20.4292 23.4
772 1 -2.92918 22.1304 25.7522
791 1 -4.40245 22.981 23.4
792 1 -4.40245 24.6822 25.7522
991 1 -1.45592 22.981 23.4
992 1 -1.45591 24.6822 25.7522
971 1 0.0173491 20.4292 23.4
972 1 0.0173511 22.1304 25.7522
1171 1 2.96388 20.4292 23.4
1172 1 2.96389 22.1304 25.7522
1191 1 1.49062 22.981 23.4
1192 1 1.49062 24.6822 25.7522
1391 1 4.43715 22.981 23.4
1392 1 4.43716 24.6822 25.7522
1371 1 5.91042 20.4292 23.4
1372 1 5.91042 22.1304 25.7522
1571 1 8.85695 20.4292 23.4
1572 1 8.85695 22.1304 25.7522
1591 1 7.38369 22.981 23.4
1592 1 7.38369 24.6822 25.7522
1771 1 11.8035 20.4292 23.4
1772 1 11.8035 22.1304 25.7522
1791 1 10.3302 22.981 23.4
1792 1 10.3302 24.6822 25.7522
1991 1 13.2768 22.981 23.4
1992 1 13.2768 24.6822 25.7522
1971 1 14.75 20.4292 23.4
1972 1 14.75 22.1304 25.7522
33 1 28.0094 2.56678 28.1043
34 1 -1.45594 4.26796 30.4565
13 1 14.75 25.5327 28.1043
14 1 0.0173291 1.71619 30.4565
213 1 -11.7688 25.5327 28.1043
214 1 2.96386 1.71619 30.4565
233 1 1.4906 2.56678 28.1043
234 1 1.4906 4.26796 30.4565
433 1 4.43713 2.56678 28.1043
434 1 4.43713 4.26796 30.4565
413 1 -8.82225 25.5327 28.1043
414 1 5.9104 1.71619 30.4565
613 1 -5.87571 25.5327 28.1043
614 1 8.85693 1.71619 30.4565
633 1 7.38367 2.56678 28.1043
634 1 7.38367 4.26796 30.4565
813 1 -2.92918 25.5327 28.1043
814 1 11.8035 1.71619 30.4565
833 1 10.3302 2.56678 28.1043
834 1 10.3302 4.26796 30.4565
1033 1 13.2767 2.56678 28.1043
1034 1 13.2767 4.26796 30.4565
1013 1 0.0173546 25.5327 28.1043
1014 1 14.75 1.71619 30.4565
1213 1 2.96389 25.5327 28.1043
1214 1 17.6965 1.71619 30.4565
1233 1 16.2233 2.56678 28.1043
1234 1 16.2233 4.26796 30.4565
1433 1 19.1698 2.56678 28.1043
1434 1 19.1698 4.26796 30.4565
1413 1 5.91042 25.5327 28.1043
1414 1 20.6431 1.71619 30.4565
1613 1 8.85696 25.5327 28.1043
1614 1 23.5896 1.71619 30.4565
1633 1 22.1163 2.56678 28.1043
1634 1 22.1163 4.26796 30.4565
1813 1 11.8035 25.5327 28.1043
1814 1 26.5361 1.71619 30.4565
1833 1 25.0629 2.56678 28.1043
1834 1 25.0629 4.26796 30.4565
53 1 26.5361 5.11855 28.1043
54 1 -2.9292 6.81974 30.4565
73 1 25.0629 7.67033 28.1043
74 1 -4.40246 9.37151 30.4565
273 1 -1.45593 7.67033 28.1043
274 1 -1.45593 9.37151 30.4565
253 1 0.0173326 5.11855 28.1043
254 1 0.0173346 6.81974 30.4565
453 1 2.96387 5.11855 28.1043
454 1 2.96387 6.81974 30.4565
473 1 1.4906 7.67033 28.1043
474 1 1.4906 9.37151 30.4565
673 1 4.43714 7.67033 28.1043
674 1 4.43714 9.37151 30.4565
653 1 5.9104 5.11855 28.1043
654 1 5.9104 6.81974 30.4565
853 1 8.85694 5.11855 28.1043
854 1 8.85694 6.81974 30.4565
873 1 7.38367 7.67033 28.1043
874 1 7.38367 9.37151 30.4565
1053 1 11.8035 5.11855 28.1043
1054 1 11.8035 6.81974 30.4565
1073 1 10.3302 7.67033 28.1043
1074 1 10.3302 9.37151 30.4565
1273 1 13.2767 7.67033 28.1043
1274 1 13.2767 9.37151 30.4565
1253 1 14.75 5.11855 28.1043
1254 1 14.75 6.81974 30.4565
1453 1 17.6965 5.11855 28.1043
1454 1 17.6965 6.81974 30.4565
1473 1 16.2233 7.67033 28.1043
1474 1 16.2233 9.37151 30.4565
1673 1 19.1698 7.67033 28.1043
1674 1 19.1698 9.37151 30.4565
1653 1 20.6431 5.11855 28.1043
1654 1 20.6431 6.81974 30.4565
1853 1 23.5896 5.11855 28.1043
1854 1 23.5896 6.81974 30.4565
1873 1 22.1163 7.67033 28.1043
1874 1 22.1163 9.37151 30.4565
93 1 23.5896 10.2221 28.1043
94 1 -5.87573 11.9233 30.4565
113 1 22.1164 12.7739 28.1043
114 1 -7.34899 14.4751 30.4565
293 1 -2.9292 10.2221 28.1043
294 1 -2.92919 11.9233 30.4565
313 1 -4.40246 12.7739 28.1043
314 1 -4.40246 14.4751 30.4565
513 1 -1.45593 12.7739 28.1043
514 1 -1.45592 14.4751 30.4565
493 1 0.0173381 10.2221 28.1043
494 1 0.0173401 11.9233 30.4565
693 1 2.96387 10.2221 28.1043
694 1 2.96387 11.9233 30.4565
713 1 1.49061 12.7739 28.1043
714 1 1.49061 14.4751 30.4565
913 1 4.43714 12.7739 28.1043
914 1 4.43714 14.4751 30.4565
893 1 5.91041 10.2221 28.1043
894 1 5.91041 11.9233 30.4565
1093 1 8.85694 10.2221 28.1043
1094 1 8.85694 11.9233 30.4565
1113 1 7.38368 12.7739 28.1043
1114 1 7.38368 14.4751 30.4565
1293 1 11.8035 10.2221 28.1043
1294 1 11.8035 11.9233 30.4565
1313 1 10.3302 12.7739 28.1043
1314 1 10.3302 14.4751 30.4565
1513 1 13.2767 12.7739 28.1043
1514 1 13.2767 14.4751 30.4565
1493 1 14.75 10.2221 28.1043
1494 1 14.75 11.9233 30.4565
1693 1 17.6965 10.2221 28.1043
1694 1 17.6965 11.9233 30.4565
1713 1 16.2233 12.7739 28.1043
1714 1 16.2233 14.4751 30.4565
1913 1 19.1698 12.7739 28.1043
1914 1 19.1698 14.4751 30.4565
1893 1 20.6431 10.2221 28.1043
1894 1 20.6431 11.9233 30.4565
153 1 19.1698 17.8774 28.1043
154 1 -10.2955 19.5786 30.4565
133 1 20.6431 15.3256 28.1043
134 1 -8.82226 17.0268 30.4565
333 1 -5.87573 15.3256 28.1043
334 1 -5.87572 17.0268 30.4565
353 1 -7.34899 17.8774 28.1043
354 1 -7.34899 19.5786 30.4565
533 1 -2.92919 15.3256 28.1043
534 1 -2.92919 17.0268 30.4565
553 1 -4.40246 17.8774 28.1043
554 1 -4.40245 19.5786 30.4565
753 1 -1.45592 17.8774 28.1043
754 1 -1.45592 19.5786 30.4565
733 1 0.0173436 15.3256 28.1043
734 1 0.0173456 17.0268 30.4565
933 1 2.96388 15.3256 28.1043
934 1 2.96388 17.0268 30.4565
953 1 1.49061 17.8774 28.1043
954 1 1.49062 19.5786 30.4565
1153 1 4.43715 17.8774 28.1043
1154 1 4.43715 19.5786 30.4565
1133 1 5.91041 15.3256 28.1043
1134 1 5.91041 17.0268 30.4565
1333 1 8.85695 15.3256 28.1043
1334 1 8.85695 17.0268 30.4565
1353 1 7.38368 17.8774 28.1043
1354 1 7.38368 19.5786 30.4565
1533 1 11.8035 15.3256 28.1043
1534 1 11.8035 17.0268 30.4565
1553 1 10.3302 17.8774 28.1043
1554 1 10.3302 19.5786 30.4565
1753 1 13.2768 17.8774 28.1043
1754 1 13.2768 19.5786 30.4565
1733 1 14.75 15.3256 28.1043
1734 1 14.75 17.0268 30.4565
1933 1 17.6966 15.3256 28.1043
1934 1 17.6966 17.0268 30.4565
1953 1 16.2233 17.8774 28.1043
1954 1 16.2233 19.5786 30.4565
173 1 17.6966 20.4292 28.1043
174 1 -11.7688 22.1304 30.4565
193 1 16.2233 22.981 28.1043
194 1 -13.2421 24.6822 30.4565
393 1 -10.2955 22.981 28.1043
394 1 -10.2955 24.6822 30.4565
373 1 -8.82225 20.4292 28.1043
374 1 -8.82225 22.1304 30.4565
573 1 -5.87572 20.4292 28.1043
574 1 -5.87572 22.1304 30.4565
593 1 -7.34898 22.981 28.1043
594 1 -7.34898 24.6822 30.4565
773 1 -2.92919 20.4292 28.1043
774 1 -2.92918 22.1304 30.4565
793 1 -4.40245 22.981 28.1043
794 1 -4.40245 24.6822 30.4565
993 1 -1.45592 22.981 28.1043
994 1 -1.45591 24.6822 30.4565
973 1 0.0173491 20.4292 28.1043
974 1 0.0173511 22.1304 30.4565
1173 1 2.96388 20.4292 28.1043
1174 1 2.96389 22.1304 30.4565
1193 1 1.49062 22.981 28.1043
1194 1 1.49062 24.6822 30.4565
1393 1 4.43715 22.981 28.1043
1394 1 4.43716 24.6822 30.4565
1373 1 5.91042 20.4292 28.1043
1374 1 5.91042 22.1304 30.4565
1573 1 8.85695 20.4292 28.1043
1574 1 8.85695 22.1304 30.4565
1593 1 7.38369 22.981 28.1043
1594 1 7.38369 24.6822 30.4565
1773 1 11.8035 20.4292 28.1043
1774 1 11.8035 22.1304 30.4565
1793 1 10.3302 22.981 28.1043
1794 1 10.3302 24.6822 30.4565
1993 1 13.2768 22.981 28.1043
1994 1 13.2768 24.6822 30.4565
1973 1 14.75 20.4292 28.1043
1974 1 14.75 22.1304 30.4565
35 1 28.0094 2.56678 32.8086
36 1 -1.45594 4.26796 35.1608
15 1 14.75 25.5327 32.8086
16 1 0.0173291 1.71619 35.1608
215 1 -11.7688 25.5327 32.8086
216 1 2.96386 1.71619 35.1608
235 1 1.4906 2.56678 32.8086
236 1 1.4906 4.26796 35.1608
435 1 4.43713 2.56678 32.8086
436 1 4.43713 4.26796 35.1608
415 1 -8.82225 25.5327 32.8086
416 1 5.9104 1.71619 35.1608
615 1 -5.87571 25.5327 32.8086
616 1 8.85693 1.71619 35.1608
635 1 7.38367 2.56678 32.8086
636 1 7.38367 4.26796 35.1608
815 1 -2.92918 25.5327 32.8086
816 1 11.8035 1.71619 35.1608
835 1 10.3302 2.56678 32.8086
836 1 10.3302 4.26796 35.1608
1035 1 13.2767 2.56678 32.8086
1036 1 13.2767 4.26796 35.1608
1015 1 0.0173546 25.5327 32.8086
1016 1 14.75 1.71619 35.1608
1215 1 2.96389 25.5327 32.8086
1216 1 17.6965 1.71619 35.1608
1235 1 16.2233 2.56678 32.8086
1236 1 16.2233 4.26796 35.1608
1435 1 19.1698 2.56678 32.8086
1436 1 19.1698 4.26796 35.1608
1415 1 5.91042 25.5327 32.8086
1416 1 20.6431 1.71619 35.1608
1615 1 8.85696 25.5327 32.8086
1616 1 23.5896 1.71619 35.1608
1635 1 22.1163 2.56678 32.8086
1636 1 22.1163 4.26796 35.1608
1815 1 11.8035 25.5327 32.8086
1816 1 26.5361 1.71619 35.1608
1835 1 25.0629 2.56678 32.8086
1836 1 25.0629 4.26796 35.1608
55 1 26.5361 5.11855 32.8086
56 1 -2.9292 6.81974 35.1608
75 1 25.0629 7.67033 32.8086
76 1 -4.40246 9.37151 35.1608
275 1 -1.45593 7.67033 32.8086
276 1 -1.45593 9.37151 35.1608
255 1 0.0173326 5.11855 32.8086
256 1 0.0173346 6.81974 35.1608
455 1 2.96387 5.11855 32.8086
456 1 2.96387 6.81974 35.1608
475 1 1.4906 7.67033 32.8086
476 1 1.4906 9.37151 35.1608
675 1 4.43714 7.67033 32.8086
676 1 4.43714 9.37151 35.1608
655 1 5.9104 5.11855 32.8086
656 1 5.9104 6.81974 35.1608
855 1 8.85694 5.11855 32.8086
856 1 8.85694 6.81974 35.1608
875 1 7.38367 7.67033 32.8086
876 1 7.38367 9.37151 35.1608
1055 1 11.8035 5.11855 32.8086
1056 1 11.8035 6.81974 35.1608
1075 1 10.3302 7.67033 32.8086
1076 1 10.3302 9.37151 35.1608
1275 1 13.2767 7.67033 32.8086
1276 1 13.2767 9.37151 35.1608
1255 1 14.75 5.11855 32.8086
1256 1 14.75 6.81974 35.1608
1455 1 17.6965 5.11855 32.8086
1456 1 17.6965 6.81974 35.1608
1475 1 16.2233 7.67033 32.8086
1476 1 16.2233 9.37151 35.1608
1675 1 19.1698 7.67033 32.8086
1676 1 19.1698 9.37151 35.1608
1655 1 20.6431 5.11855 32.8086
1656 1 20.6431 6.81974 35.1608
1855 1 23.5896 5.11855 32.8086
1856 1 23.5896 6.81974 35.1608
1875 1 22.1163 7.67033 32.8086
1876 1 22.1163 9.37151 35.1608
95 1 23.5896 10.2221 32.8086
96 1 -5.87573 11.9233 35.1608
115 1 22.1164 12.7739 32.8086
116 1 -7.34899 14.4751 35.1608
295 1 -2.9292 10.2221 32.8086
296 1 -2.92919 11.9233 35.1608
315 1 -4.40246 12.7739 32.8086
316 1 -4.40246 14.4751 35.1608
515 1 -1.45593 12.7739 32.8086
516 1 -1.45592 14.4751 35.1608
495 1 0.0173381 10.2221 32.8086
496 1 0.0173401 11.9233 35.1608
695 1 2.96387 10.2221 32.8086
696 1 2.96387 11.9233 35.1608
715 1 1.49061 12.7739 32.8086
716 1 1.49061 14.4751 35.1608
915 1 4.43714 12.7739 32.8086
916 1 4.43714 14.4751 35.1608
895 1 5.91041 10.2221 32.8086
896 1 5.91041 11.9233 35.1608
1095 1 8.85694 10.2221 32.8086
1096 1 8.85694 11.9233 35.1608
1115 1 7.38368 12.7739 32.8086
1116 1 7.38368 14.4751 35.1608
1295 1 11.8035 10.2221 32.8086
1296 1 11.8035 11.9233 35.1608
1315 1 10.3302 12.7739 32.8086
1316 1 10.3302 14.4751 35.1608
1515 1 13.2767 12.7739 32.8086
1516 1 13.2767 14.4751 35.1608
1495 1 14.75 10.2221 32.8086
1496 1 14.75 11.9233 35.1608
1695 1 17.6965 10.2221 32.8086
1696 1 17.6965 11.9233 35.1608
1715 1 16.2233 12.7739 32.8086
1716 1 16.2233 14.4751 35.1608
1915 1 19.1698 12.7739 32.8086
1916 1 19.1698 14.4751 35.1608
1895 1 20.6431 10.2221 32.8086
1896 1 20.6431 11.9233 35.1608
155 1 19.1698 17.8774 32.8086
156 1 -10.2955 19.5786 35.1608
135 1 20.6431 15.3256 32.8086
136 1 -8.82226 17.0268 35.1608
335 1 -5.87573 15.3256 32.8086
336 1 -5.87572 17.0268 35.1608
355 1 -7.34899 17.8774 32.8086
356 1 -7.34899 19.5786 35.1608
535 1 -2.92919 15.3256 32.8086
536 1 -2.92919 17.0268 35.1608
555 1 -4.40246 17.8774 32.8086
556 1 -4.40245 19.5786 35.1608
755 1 -1.45592 17.8774 32.8086
756 1 -1.45592 19.5786 35.1608
735 1 0.0173436 15.3256 32.8086
736 1 0.0173456 17.0268 35.1608
935 1 2.96388 15.3256 32.8086
936 1 2.96388 17.0268 35.1608
955 1 1.49061 17.8774 32.8086
956 1 1.49062 19.5786 35.1608
1155 1 4.43715 17.8774 32.8086
1156 1 4.43715 19.5786 35.1608
1135 1 5.91041 15.3256 32.8086
1136 1 5.91041 17.0268 35.1608
1335 1 8.85695 15.3256 32.8086
1336 1 8.85695 17.0268 35.1608
1355 1 7.38368 17.8774 32.8086
1356 1 7.38368 19.5786 35.1608
1535 1 11.8035 15.3256 32.8086
1536 1 11.8035 17.0268 35.1608
1555 1 10.3302 17.8774 32.8086
1556 1 10.3302 19.5786 35.1608
1755 1 13.2768 17.8774 32.8086
1756 1 13.2768 19.5786 35.1608
1735 1 14.75 15.3256 32.8086
1736 1 14.75 17.0268 35.1608
1935 1 17.6966 15.3256 32.8086
1936 1 17.6966 17.0268 35.1608
1955 1 16.2233 17.8774 32.8086
1956 1 16.2233 19.5786 35.1608
175 1 17.6966 20.4292 32.8086
176 1 -11.7688 22.1304 35.1608
195 1 16.2233 22.981 32.8086
196 1 -13.2421 24.6822 35.1608
395 1 -10.2955 22.981 32.8086
396 1 -10.2955 24.6822 35.1608
375 1 -8.82225 20.4292 32.8086
376 1 -8.82225 22.1304 35.1608
575 1 -5.87572 20.4292 32.8086
576 1 -5.87572 22.1304 35.1608
595 1 -7.34898 22.981 32.8086
596 1 -7.34898 24.6822 35.1608
775 1 -2.92919 20.4292 32.8086
776 1 -2.92918 22.1304 35.1608
795 1 -4.40245 22.981 32.8086
796 1 -4.40245 24.6822 35.1608
995 1 -1.45592 22.981 32.8086
996 1 -1.45591 24.6822 35.1608
975 1 0.0173491 20.4292 32.8086
976 1 0.0173511 22.1304 35.1608
1175 1 2.96388 20.4292 32.8086
1176 1 2.96389 22.1304 35.1608
1195 1 1.49062 22.981 32.8086
1196 1 1.49062 24.6822 35.1608
1395 1 4.43715 22.981 32.8086
1396 1 4.43716 24.6822 35.1608
1375 1 5.91042 20.4292 32.8086
1376 1 5.91042 22.1304 35.1608
1575 1 8.85695 20.4292 32.8086
1576 1 8.85695 22.1304 35.1608
1595 1 7.38369 22.981 32.8086
1596 1 7.38369 24.6822 35.1608
1775 1 11.8035 20.4292 32.8086
1776 1 11.8035 22.1304 35.1608
1795 1 10.3302 22.981 32.8086
1796 1 10.3302 24.6822 35.1608
1995 1 13.2768 22.981 32.8086
1996 1 13.2768 24.6822 35.1608
1975 1 14.75 20.4292 32.8086
1976 1 14.75 22.1304 35.1608
37 1 28.0094 2.56678 37.5129
38 1 -1.45594 4.26796 39.8651
39 1 28.0094 2.56678 42.2172
17 1 14.75 25.5327 37.5129
18 1 0.0173291 1.71619 39.8651
19 1 14.75 25.5327 42.2172
217 1 -11.7688 25.5327 37.5129
218 1 2.96386 1.71619 39.8651
219 1 -11.7688 25.5327 42.2172
237 1 1.4906 2.56678 37.5129
238 1 1.4906 4.26796 39.8651
239 1 1.4906 2.56678 42.2172
437 1 4.43713 2.56678 37.5129
438 1 4.43713 4.26796 39.8651
439 1 4.43713 2.56678 42.2172
417 1 -8.82225 25.5327 37.5129
418 1 5.9104 1.71619 39.8651
419 1 -8.82225 25.5327 42.2172
617 1 -5.87571 25.5327 37.5129
618 1 8.85693 1.71619 39.8651
619 1 -5.87571 25.5327 42.2172
637 1 7.38367 2.56678 37.5129
638 1 7.38367 4.26796 39.8651
639 1 7.38367 2.56678 42.2172
817 1 -2.92918 25.5327 37.5129
818 1 11.8035 1.71619 39.8651
819 1 -2.92918 25.5327 42.2172
837 1 10.3302 2.56678 37.5129
838 1 10.3302 4.26796 39.8651
839 1 10.3302 2.56678 42.2172
1037 1 13.2767 2.56678 37.5129
1038 1 13.2767 4.26796 39.8651
1039 1 13.2767 2.56678 42.2172
1017 1 0.0173546 25.5327 37.5129
1018 1 14.75 1.71619 39.8651
1019 1 0.0173546 25.5327 42.2172
1217 1 2.96389 25.5327 37.5129
1218 1 17.6965 1.71619 39.8651
1219 1 2.96389 25.5327 42.2172
1237 1 16.2233 2.56678 37.5129
1238 1 16.2233 4.26796 39.8651
1239 1 16.2233 2.56678 42.2172
1437 1 19.1698 2.56678 37.5129
1438 1 19.1698 4.26796 39.8651
1439 1 19.1698 2.56678 42.2172
1417 1 5.91042 25.5327 37.5129
1418 1 20.6431 1.71619 39.8651
1419 1 5.91042 25.5327 42.2172
1617 1 8.85696 25.5327 37.5129
1618 1 23.5896 1.71619 39.8651
1619 1 8.85696 25.5327 42.2172
1637 1 22.1163 2.56678 37.5129
1638 1 22.1163 4.26796 39.8651
1639 1 22.1163 2.56678 42.2172
1817 1 11.8035 25.5327 37.5129
1818 1 26.5361 1.71619 39.8651
1819 1 11.8035 25.5327 42.2172
1837 1 25.0629 2.56678 37.5129
1838 1 25.0629 4.26796 39.8651
1839 1 25.0629 2.56678 42.2172
57 1 26.5361 5.11855 37.5129
58 1 -2.9292 6.81974 39.8651
59 1 26.5361 5.11855 42.2172
77 1 25.0629 7.67033 37.5129
78 1 -4.40246 9.37151 39.8651
79 1 25.0629 7.67033 42.2172
277 1 -1.45593 7.67033 37.5129
278 1 -1.45593 9.37151 39.8651
279 1 -1.45593 7.67033 42.2172
257 1 0.0173326 5.11855 37.5129
258 1 0.0173346 6.81974 39.8651
259 1 0.0173326 5.11855 42.2172
457 1 2.96387 5.11855 37.5129
458 1 2.96387 6.81974 39.8651
459 1 2.96387 5.11855 42.2172
477 1 1.4906 7.67033 37.5129
478 1 1.4906 9.37151 39.8651
479 1 1.4906 7.67033 42.2172
677 1 4.43714 7.67033 37.5129
678 1 4.43714 9.37151 39.8651
679 1 4.43714 7.67033 42.2172
657 1 5.9104 5.11855 37.5129
658 1 5.9104 6.81974 39.8651
659 1 5.9104 5.11855 42.2172
857 1 8.85694 5.11855 37.5129
858 1 8.85694 6.81974 39.8651
859 1 8.85694 5.11855 42.2172
877 1 7.38367 7.67033 37.5129
878 1 7.38367 9.37151 39.8651
879 1 7.38367 7.67033 42.2172
1057 1 11.8035 5.11855 37.5129
1058 1 11.8035 6.81974 39.8651
1059 1 11.8035 5.11855 42.2172
1077 1 10.3302 7.67033 37.5129
1078 1 10.3302 9.37151 39.8651
1079 1 10.3302 7.67033 42.2172
1277 1 13.2767 7.67033 37.5129
1278 1 13.2767 9.37151 39.8651
1279 1 13.2767 7.67033 42.2172
1257 1 14.75 5.11855 37.5129
1258 1 14.75 6.81974 39.8651
1259 1 14.75 5.11855 42.2172
1457 1 17.6965 5.11855 37.5129
1458 1 17.6965 6.81974 39.8651
1459 1 17.6965 5.11855 42.2172
1477 1 16.2233 7.67033 37.5129
1478 1 16.2233 9.37151 39.8651
1479 1 16.2233 7.67033 42.2172
1677 1 19.1698 7.67033 37.5129
1678 1 19.1698 9.37151 39.8651
1679 1 19.1698 7.67033 42.2172
1657 1 20.6431 5.11855 37.5129
1658 1 20.6431 6.81974 39.8651
1659 1 20.6431 5.11855 42.2172
1857 1 23.5896 5.11855 37.5129
1858 1 23.5896 6.81974 39.8651
1859 1 23.5896 5.11855 42.2172
1877 1 22.1163 7.67033 37.5129
1878 1 22.1163 9.37151 39.8651
1879 1 22.1163 7.67033 42.2172
97 1 23.5896 10.2221 37.5129
98 1 -5.87573 11.9233 39.8651
99 1 23.5896 10.2221 42.2172
117 1 22.1164 12.7739 37.5129
118 1 -7.34899 14.4751 39.8651
119 1 22.1164 12.7739 42.2172
297 1 -2.9292 10.2221 37.5129
298 1 -2.92919 11.9233 39.8651
299 1 -2.9292 10.2221 42.2172
317 1 -4.40246 12.7739 37.5129
318 1 -4.40246 14.4751 39.8651
319 1 -4.40246 12.7739 42.2172
517 1 -1.45593 12.7739 37.5129
518 1 -1.45592 14.4751 39.8651
519 1 -1.45593 12.7739 42.2172
497 1 0.0173381 10.2221 37.5129
498 1 0.0173401 11.9233 39.8651
499 1 0.0173381 10.2221 42.2172
697 1 2.96387 10.2221 37.5129
698 1 2.96387 11.9233 39.8651
699 1 2.96387 10.2221 42.2172
717 1 1.49061 12.7739 37.5129
718 1 1.49061 14.4751 39.8651
719 1 1.49061 12.7739 42.2172
917 1 4.43714 12.7739 37.5129
918 1 4.43714 14.4751 39.8651
919 1 4.43714 12.7739 42.2172
897 1 5.91041 10.2221 37.5129
898 1 5.91041 11.9233 39.8651
899 1 5.91041 10.2221 42.2172
1097 1 8.85694 10.2221 37.5129
1098 1 8.85694 11.9233 39.8651
1099 1 8.85694 10.2221 42.2172
1117 1 7.38368 12.7739 37.5129
1118 1 7.38368 14.4751 39.8651
1119 1 7.38368 12.7739 42.2172
1297 1 11.8035 10.2221 37.5129
1298 1 11.8035 11.9233 39.8651
1299 1 11.8035 10.2221 42.2172
1317 1 10.3302 12.7739 37.5129
1318 1 10.3302 14.4751 39.8651
1319 1 10.3302 12.7739 42.2172
1517 1 13.2767 12.7739 37.5129
1518 1 13.2767 14.4751 39.8651
1519 1 13.2767 12.7739 42.2172
1497 1 14.75 10.2221 37.5129
1498 1 14.75 11.9233 39.8651
1499 1 14.75 10.2221 42.2172
1697 1 17.6965 10.2221 37.5129
1698 1 17.6965 11.9233 39.8651
1699 1 17.6965 10.2221 42.2172
1717 1 16.2233 12.7739 37.5129
1718 1 16.2233 14.4751 39.8651
1719 1 16.2233 12.7739 42.2172
1917 1 19.1698 12.7739 37.5129
1918 1 19.1698 14.4751 39.8651
1919 1 19.1698 12.7739 42.2172
1897 1 20.6431 10.2221 37.5129
1898 1 20.6431 11.9233 39.8651
1899 1 20.6431 10.2221 42.2172
157 1 19.1698 17.8774 37.5129
158 1 -10.2955 19.5786 39.8651
159 1 19.1698 17.8774 42.2172
137 1 20.6431 15.3256 37.5129
138 1 -8.82226 17.0268 39.8651
139 1 20.6431 15.3256 42.2172
337 1 -5.87573 15.3256 37.5129
338 1 -5.87572 17.0268 39.8651
339 1 -5.87573 15.3256 42.2172
357 1 -7.34899 17.8774 37.5129
358 1 -7.34899 19.5786 39.8651
359 1 -7.34899 17.8774 42.2172
537 1 -2.92919 15.3256 37.5129
538 1 -2.92919 17.0268 39.8651
539 1 -2.92919 15.3256 42.2172
557 1 -4.40246 17.8774 37.5129
558 1 -4.40245 19.5786 39.8651
559 1 -4.40246 17.8774 42.2172
757 1 -1.45592 17.8774 37.5129
758 1 -1.45592 19.5786 39.8651
759 1 -1.45592 17.8774 42.2172
737 1 0.0173436 15.3256 37.5129
738 1 0.0173456 17.0268 39.8651
739 1 0.0173436 15.3256 42.2172
937 1 2.96388 15.3256 37.5129
938 1 2.96388 17.0268 39.8651
939 1 2.96388 15.3256 42.2172
957 1 1.49061 17.8774 37.5129
958 1 1.49062 19.5786 39.8651
959 1 1.49061 17.8774 42.2172
1157 1 4.43715 17.8774 37.5129
1158 1 4.43715 19.5786 39.8651
1159 1 4.43715 17.8774 42.2172
1137 1 5.91041 15.3256 37.5129
1138 1 5.91041 17.0268 39.8651
1139 1 5.91041 15.3256 42.2172
1337 1 8.85695 15.3256 37.5129
1338 1 8.85695 17.0268 39.8651
1339 1 8.85695 15.3256 42.2172
1357 1 7.38368 17.8774 37.5129
1358 1 7.38368 19.5786 39.8651
1359 1 7.38368 17.8774 42.2172
1537 1 11.8035 15.3256 37.5129
1538 1 11.8035 17.0268 39.8651
1539 1 11.8035 15.3256 42.2172
1557 1 10.3302 17.8774 37.5129
1558 1 10.3302 19.5786 39.8651
1559 1 10.3302 17.8774 42.2172
1757 1 13.2768 17.8774 37.5129
1758 1 13.2768 19.5786 39.8651
1759 1 13.2768 17.8774 42.2172
1737 1 14.75 15.3256 37.5129
1738 1 14.75 17.0268 39.8651
1739 1 14.75 15.3256 42.2172
1937 1 17.6966 15.3256 37.5129
1938 1 17.6966 17.0268 39.8651
1939 1 17.6966 15.3256 42.2172
1957 1 16.2233 17.8774 37.5129
1958 1 16.2233 19.5786 39.8651
1959 1 16.2233 17.8774 42.2172
177 1 17.6966 20.4292 37.5129
178 1 -11.7688 22.1304 39.8651
179 1 17.6966 20.4292 42.2172
197 1 16.2233 22.981 37.5129
198 1 -13.2421 24.6822 39.8651
199 1 16.2233 22.981 42.2172
397 1 -10.2955 22.981 37.5129
398 1 -10.2955 24.6822 39.8651
399 1 -10.2955 22.981 42.2172
377 1 -8.82225 20.4292 37.5129
378 1 -8.82225 22.1304 39.8651
379 1 -8.82225 20.4292 42.2172
577 1 -5.87572 20.4292 37.5129
578 1 -5.87572 22.1304 39.8651
579 1 -5.87572 20.4292 42.2172
597 1 -7.34898 22.981 37.5129
598 1 -7.34898 24.6822 39.8651
599 1 -7.34898 22.981 42.2172
777 1 -2.92919 20.4292 37.5129
778 1 -2.92918 22.1304 39.8651
779 1 -2.92919 20.4292 42.2172
797 1 -4.40245 22.981 37.5129
798 1 -4.40245 24.6822 39.8651
799 1 -4.40245 22.981 42.2172
997 1 -1.45592 22.981 37.5129
998 1 -1.45591 24.6822 39.8651
999 1 -1.45592 22.981 42.2172
977 1 0.0173491 20.4292 37.5129
978 1 0.0173511 22.1304 39.8651
979 1 0.0173491 20.4292 42.2172
1177 1 2.96388 20.4292 37.5129
1178 1 2.96389 22.1304 39.8651
1179 1 2.96388 20.4292 42.2172
1197 1 1.49062 22.981 37.5129
1198 1 1.49062 24.6822 39.8651
1199 1 1.49062 22.981 42.2172
1397 1 4.43715 22.981 37.5129
1398 1 4.43716 24.6822 39.8651
1399 1 4.43715 22.981 42.2172
1377 1 5.91042 20.4292 37.5129
1378 1 5.91042 22.1304 39.8651
1379 1 5.91042 20.4292 42.2172
1577 1 8.85695 20.4292 37.5129
1578 1 8.85695 22.1304 39.8651
1579 1 8.85695 20.4292 42.2172
1597 1 7.38369 22.981 37.5129
1598 1 7.38369 24.6822 39.8651
1599 1 7.38369 22.981 42.2172
1777 1 11.8035 20.4292 37.5129
1778 1 11.8035 22.1304 39.8651
1779 1 11.8035 20.4292 42.2172
1797 1 10.3302 22.981 37.5129
1798 1 10.3302 24.6822 39.8651
1799 1 10.3302 22.981 42.2172
1997 1 13.2768 22.981 37.5129
1998 1 13.2768 24.6822 39.8651
1999 1 13.2768 22.981 42.2172
1977 1 14.75 20.4292 37.5129
1978 1 14.75 22.1304 39.8651
1979 1 14.75 20.4292 42.2172
40 1 -1.45594 4.26796 44.5694
20 1 0.0173291 1.71619 44.5694
220 1 2.96386 1.71619 44.5694
240 1 1.4906 4.26796 44.5694
440 1 4.43713 4.26796 44.5694
420 1 5.9104 1.71619 44.5694
620 1 8.85693 1.71619 44.5694
640 1 7.38367 4.26796 44.5694
820 1 11.8035 1.71619 44.5694
840 1 10.3302 4.26796 44.5694
1040 1 13.2767 4.26796 44.5694
1020 1 14.75 1.71619 44.5694
1220 1 17.6965 1.71619 44.5694
1240 1 16.2233 4.26796 44.5694
1440 1 19.1698 4.26796 44.5694
1420 1 20.6431 1.71619 44.5694
1620 1 23.5896 1.71619 44.5694
1640 1 22.1163 4.26796 44.5694
1820 1 26.5361 1.71619 44.5694
1840 1 25.0629 4.26796 44.5694
60 1 -2.9292 6.81974 44.5694
80 1 -4.40246 9.37151 44.5694
280 1 -1.45593 9.37151 44.5694
260 1 0.0173346 6.81974 44.5694
460 1 2.96387 6.81974 44.5694
480 1 1.4906 9.37151 44.5694
680 1 4.43714 9.37151 44.5694
660 1 5.9104 6.81974 44.5694
860 1 8.85694 6.81974 44.5694
880 1 7.38367 9.37151 44.5694
1060 1 11.8035 6.81974 44.5694
1080 1 10.3302 9.37151 44.5694
1280 1 13.2767 9.37151 44.5694
1260 1 14.75 6.81974 44.5694
1460 1 17.6965 6.81974 44.5694
1480 1 16.2233 9.37151 44.5694
1680 1 19.1698 9.37151 44.5694
1660 1 20.6431 6.81974 44.5694
1860 1 23.5896 6.81974 44.5694
1880 1 22.1163 9.37151 44.5694
100 1 -5.87573 11.9233 44.5694
120 1 -7.34899 14.4751 44.5694
300 1 -2.92919 11.9233 44.5694
320 1 -4.40246 14.4751 44.5694
520 1 -1.45592 14.4751 44.5694
500 1 0.0173401 11.9233 44.5694
700 1 2.96387 11.9233 44.5694
720 1 1.49061 14.4751 44.5694
920 1 4.43714 14.4751 44.5694
900 1 5.91041 11.9233 44.5694
1100 1 8.85694 11.9233 44.5694
1120 1 7.38368 14.4751 44.5694
1300 1 11.8035 11.9233 44.5694
1320 1 10.3302 14.4751 44.5694
1520 1 13.2767 14.4751 44.5694
1500 1 14.75 11.9233 44.5694
1700 1 17.6965 11.9233 44.5694
1720 1 16.2233 14.4751 44.5694
1920 1 19.1698 14.4751 44.5694
1900 1 20.6431 11.9233 44.5694
160 1 -10.2955 19.5786 44.5694
140 1 -8.82226 17.0268 44.5694
340 1 -5.87572 17.0268 44.5694
360 1 -7.34899 19.5786 44.5694
540 1 -2.92919 17.0268 44.5694
560 1 -4.40245 19.5786 44.5694
760 1 -1.45592 19.5786 44.5694
740 1 0.0173456 17.0268 44.5694
940 1 2.96388 17.0268 44.5694
960 1 1.49062 19.5786 44.5694
1160 1 4.43715 19.5786 44.5694
1140 1 5.91041 17.0268 44.5694
1340 1 8.85695 17.0268 44.5694
1360 1 7.38368 19.5786 44.5694
1540 1 11.8035 17.0268 44.5694
1560 1 10.3302 19.5786 44.5694
1760 1 13.2768 19.5786 44.5694
1740 1 14.75 17.0268 44.5694
1940 1 17.6966 17.0268 44.5694
1960 1 16.2233 19.5786 44.5694
180 1 -11.7688 22.1304 44.5694
200 1 -13.2421 24.6822 44.5694
400 1 -10.2955 24.6822 44.5694
380 1 -8.82225 22.1304 44.5694
580 1 -5.87572 22.1304 44.5694
600 1 -7.34898 24.6822 44.5694
780 1 -2.92918 22.1304 44.5694
800 1 -4.40245 24.6822 44.5694
1000 1 -1.45591 24.6822 44.5694
980 1 0.0173511 22.1304 44.5694
1180 1 2.96389 22.1304 44.5694
1200 1 1.49062 24.6822 44.5694
1400 1 4.43716 24.6822 44.5694
1380 1 5.91042 22.1304 44.5694
1580 1 8.85695 22.1304 44.5694
1600 1 7.38369 24.6822 44.5694
1780 1 11.8035 22.1304 44.5694
1800 1 10.3302 24.6822 44.5694
2000 1 13.2768 24.6822 44.5694
1980 1 14.75 22.1304 44.5694
