(written by ASE)

2000 atoms
1 atom types

0.0                    29.5  xlo xhi
0.0       25.54774941164094  ylo yhi
0.0      46.799999999999997  zlo zhi
                 -14.75                       0                       0  xy xz yz

Atoms # atomic

     1   1                       0                       0                       0
     2   1  5.4585965377403533e-17      1.7031832941093958      2.3399999999999999
     3   1                       0                       0      4.6799999999999997
     4   1  5.4585965377403533e-17      1.7031832941093958      7.0199999999999996
     5   1                       0                       0      9.3599999999999994
     6   1  5.4585965377403533e-17      1.7031832941093958      11.699999999999999
     7   1                       0                       0      14.039999999999999
     8   1  5.4585965377403533e-17      1.7031832941093958      16.379999999999999
     9   1                       0                       0      18.719999999999999
    10   1  5.4585965377403533e-17      1.7031832941093958      21.059999999999999
    11   1                       0                       0      23.399999999999999
    12   1  5.4585965377403533e-17      1.7031832941093958      25.739999999999998
    13   1                       0                       0      28.079999999999998
    14   1  5.4585965377403533e-17      1.7031832941093958      30.419999999999998
    15   1                       0                       0      32.759999999999998
    16   1  5.4585965377403533e-17      1.7031832941093958      35.099999999999994
    17   1                       0                       0      37.439999999999998
    18   1  5.4585965377403533e-17      1.7031832941093958      39.780000000000001
    19   1                       0                       0      42.119999999999997
    20   1  5.4585965377403533e-17      1.7031832941093958      44.459999999999994
    21   1     -1.4750000000000001      2.5547749411640939                       0
    22   1     -1.4750000000000001      4.2579582352734899      2.3399999999999999
    23   1     -1.4750000000000001      2.5547749411640939      4.6799999999999997
    24   1     -1.4750000000000001      4.2579582352734899      7.0199999999999996
    25   1     -1.4750000000000001      2.5547749411640939      9.3599999999999994
    26   1     -1.4750000000000001      4.2579582352734899      11.699999999999999
    27   1     -1.4750000000000001      2.5547749411640939      14.039999999999999
    28   1     -1.4750000000000001      4.2579582352734899      16.379999999999999
    29   1     -1.4750000000000001      2.5547749411640939      18.719999999999999
    30   1     -1.4750000000000001      4.2579582352734899      21.059999999999999
    31   1     -1.4750000000000001      2.5547749411640939      23.399999999999999
    32   1     -1.4750000000000001      4.2579582352734899      25.739999999999998
    33   1     -1.4750000000000001      2.5547749411640939      28.079999999999998
    34   1     -1.4750000000000001      4.2579582352734899      30.419999999999998
    35   1     -1.4750000000000001      2.5547749411640939      32.759999999999998
    36   1     -1.4750000000000001      4.2579582352734899      35.099999999999994
    37   1     -1.4750000000000001      2.5547749411640939      37.439999999999998
    38   1     -1.4750000000000001      4.2579582352734899      39.780000000000001
    39   1     -1.4750000000000001      2.5547749411640939      42.119999999999997
    40   1     -1.4750000000000001      4.2579582352734899      44.459999999999994
    41   1     -2.9500000000000002      5.1095498823281877                       0
    42   1     -2.9500000000000002      6.8127331764375834      2.3399999999999999
    43   1     -2.9500000000000002      5.1095498823281877      4.6799999999999997
    44   1     -2.9500000000000002      6.8127331764375834      7.0199999999999996
    45   1     -2.9500000000000002      5.1095498823281877      9.3599999999999994
    46   1     -2.9500000000000002      6.8127331764375834      11.699999999999999
    47   1     -2.9500000000000002      5.1095498823281877      14.039999999999999
    48   1     -2.9500000000000002      6.8127331764375834      16.379999999999999
    49   1     -2.9500000000000002      5.1095498823281877      18.719999999999999
    50   1     -2.9500000000000002      6.8127331764375834      21.059999999999999
    51   1     -2.9500000000000002      5.1095498823281877      23.399999999999999
    52   1     -2.9500000000000002      6.8127331764375834      25.739999999999998
    53   1     -2.9500000000000002      5.1095498823281877      28.079999999999998
    54   1     -2.9500000000000002      6.8127331764375834      30.419999999999998
    55   1     -2.9500000000000002      5.1095498823281877      32.759999999999998
    56   1     -2.9500000000000002      6.8127331764375834      35.099999999999994
    57   1     -2.9500000000000002      5.1095498823281877      37.439999999999998
    58   1     -2.9500000000000002      6.8127331764375834      39.780000000000001
    59   1     -2.9500000000000002      5.1095498823281877      42.119999999999997
    60   1     -2.9500000000000002      6.8127331764375834      44.459999999999994
    61   1     -4.4250000000000007      7.6643248234922812                       0
    62   1     -4.4250000000000007      9.3675081176016768      2.3399999999999999
    63   1     -4.4250000000000007      7.6643248234922812      4.6799999999999997
    64   1     -4.4250000000000007      9.3675081176016768      7.0199999999999996
    65   1     -4.4250000000000007      7.6643248234922812      9.3599999999999994
    66   1     -4.4250000000000007      9.3675081176016768      11.699999999999999
    67   1     -4.4250000000000007      7.6643248234922812      14.039999999999999
    68   1     -4.4250000000000007      9.3675081176016768      16.379999999999999
    69   1     -4.4250000000000007      7.6643248234922812      18.719999999999999
    70   1     -4.4250000000000007      9.3675081176016768      21.059999999999999
    71   1     -4.4250000000000007      7.6643248234922812      23.399999999999999
    72   1     -4.4250000000000007      9.3675081176016768      25.739999999999998
    73   1     -4.4250000000000007      7.6643248234922812      28.079999999999998
    74   1     -4.4250000000000007      9.3675081176016768      30.419999999999998
    75   1     -4.4250000000000007      7.6643248234922812      32.759999999999998
    76   1     -4.4250000000000007      9.3675081176016768      35.099999999999994
    77   1     -4.4250000000000007      7.6643248234922812      37.439999999999998
    78   1     -4.4250000000000007      9.3675081176016768      39.780000000000001
    79   1     -4.4250000000000007      7.6643248234922812      42.119999999999997
    80   1     -4.4250000000000007      9.3675081176016768      44.459999999999994
    81   1     -5.9000000000000004      10.219099764656375                       0
    82   1     -5.9000000000000004      11.922283058765771      2.3399999999999999
    83   1     -5.9000000000000004      10.219099764656375      4.6799999999999997
    84   1     -5.9000000000000004      11.922283058765771      7.0199999999999996
    85   1     -5.9000000000000004      10.219099764656375      9.3599999999999994
    86   1     -5.9000000000000004      11.922283058765771      11.699999999999999
    87   1     -5.9000000000000004      10.219099764656375      14.039999999999999
    88   1     -5.9000000000000004      11.922283058765771      16.379999999999999
    89   1     -5.9000000000000004      10.219099764656375      18.719999999999999
    90   1     -5.9000000000000004      11.922283058765771      21.059999999999999
    91   1     -5.9000000000000004      10.219099764656375      23.399999999999999
    92   1     -5.9000000000000004      11.922283058765771      25.739999999999998
    93   1     -5.9000000000000004      10.219099764656375      28.079999999999998
    94   1     -5.9000000000000004      11.922283058765771      30.419999999999998
    95   1     -5.9000000000000004      10.219099764656375      32.759999999999998
    96   1     -5.9000000000000004      11.922283058765771      35.099999999999994
    97   1     -5.9000000000000004      10.219099764656375      37.439999999999998
    98   1     -5.9000000000000004      11.922283058765771      39.780000000000001
    99   1     -5.9000000000000004      10.219099764656375      42.119999999999997
   100   1     -5.9000000000000004      11.922283058765771      44.459999999999994
   101   1                  -7.375       12.77387470582047                       0
   102   1                  -7.375      14.477057999929865      2.3399999999999999
   103   1                  -7.375       12.77387470582047      4.6799999999999997
   104   1                  -7.375      14.477057999929865      7.0199999999999996
   105   1                  -7.375       12.77387470582047      9.3599999999999994
   106   1                  -7.375      14.477057999929865      11.699999999999999
   107   1                  -7.375       12.77387470582047      14.039999999999999
   108   1                  -7.375      14.477057999929865      16.379999999999999
   109   1                  -7.375       12.77387470582047      18.719999999999999
   110   1                  -7.375      14.477057999929865      21.059999999999999
   111   1                  -7.375       12.77387470582047      23.399999999999999
   112   1                  -7.375      14.477057999929865      25.739999999999998
   113   1                  -7.375       12.77387470582047      28.079999999999998
   114   1                  -7.375      14.477057999929865      30.419999999999998
   115   1                  -7.375       12.77387470582047      32.759999999999998
   116   1                  -7.375      14.477057999929865      35.099999999999994
   117   1                  -7.375       12.77387470582047      37.439999999999998
   118   1                  -7.375      14.477057999929865      39.780000000000001
   119   1                  -7.375       12.77387470582047      42.119999999999997
   120   1                  -7.375      14.477057999929865      44.459999999999994
   121   1     -8.8500000000000014      15.328649646984562                       0
   122   1     -8.8500000000000014       17.03183294109396      2.3399999999999999
   123   1     -8.8500000000000014      15.328649646984562      4.6799999999999997
   124   1     -8.8500000000000014       17.03183294109396      7.0199999999999996
   125   1     -8.8500000000000014      15.328649646984562      9.3599999999999994
   126   1     -8.8500000000000014       17.03183294109396      11.699999999999999
   127   1     -8.8500000000000014      15.328649646984562      14.039999999999999
   128   1     -8.8500000000000014       17.03183294109396      16.379999999999999
   129   1     -8.8500000000000014      15.328649646984562      18.719999999999999
   130   1     -8.8500000000000014       17.03183294109396      21.059999999999999
   131   1     -8.8500000000000014      15.328649646984562      23.399999999999999
   132   1     -8.8500000000000014       17.03183294109396      25.739999999999998
   133   1     -8.8500000000000014      15.328649646984562      28.079999999999998
   134   1     -8.8500000000000014       17.03183294109396      30.419999999999998
   135   1     -8.8500000000000014      15.328649646984562      32.759999999999998
   136   1     -8.8500000000000014       17.03183294109396      35.099999999999994
   137   1     -8.8500000000000014      15.328649646984562      37.439999999999998
   138   1     -8.8500000000000014       17.03183294109396      39.780000000000001
   139   1     -8.8500000000000014      15.328649646984562      42.119999999999997
   140   1     -8.8500000000000014       17.03183294109396      44.459999999999994
   141   1     -10.325000000000001      17.883424588148657                       0
   142   1     -10.325000000000001      19.586607882258054      2.3399999999999999
   143   1     -10.325000000000001      17.883424588148657      4.6799999999999997
   144   1     -10.325000000000001      19.586607882258054      7.0199999999999996
   145   1     -10.325000000000001      17.883424588148657      9.3599999999999994
   146   1     -10.325000000000001      19.586607882258054      11.699999999999999
   147   1     -10.325000000000001      17.883424588148657      14.039999999999999
   148   1     -10.325000000000001      19.586607882258054      16.379999999999999
   149   1     -10.325000000000001      17.883424588148657      18.719999999999999
   150   1     -10.325000000000001      19.586607882258054      21.059999999999999
   151   1     -10.325000000000001      17.883424588148657      23.399999999999999
   152   1     -10.325000000000001      19.586607882258054      25.739999999999998
   153   1     -10.325000000000001      17.883424588148657      28.079999999999998
   154   1     -10.325000000000001      19.586607882258054      30.419999999999998
   155   1     -10.325000000000001      17.883424588148657      32.759999999999998
   156   1     -10.325000000000001      19.586607882258054      35.099999999999994
   157   1     -10.325000000000001      17.883424588148657      37.439999999999998
   158   1     -10.325000000000001      19.586607882258054      39.780000000000001
   159   1     -10.325000000000001      17.883424588148657      42.119999999999997
   160   1     -10.325000000000001      19.586607882258054      44.459999999999994
   161   1     -11.800000000000001      20.438199529312751                       0
   162   1     -11.800000000000001      22.141382823422148      2.3399999999999999
   163   1     -11.800000000000001      20.438199529312751      4.6799999999999997
   164   1     -11.800000000000001      22.141382823422148      7.0199999999999996
   165   1     -11.800000000000001      20.438199529312751      9.3599999999999994
   166   1     -11.800000000000001      22.141382823422148      11.699999999999999
   167   1     -11.800000000000001      20.438199529312751      14.039999999999999
   168   1     -11.800000000000001      22.141382823422148      16.379999999999999
   169   1     -11.800000000000001      20.438199529312751      18.719999999999999
   170   1     -11.800000000000001      22.141382823422148      21.059999999999999
   171   1     -11.800000000000001      20.438199529312751      23.399999999999999
   172   1     -11.800000000000001      22.141382823422148      25.739999999999998
   173   1     -11.800000000000001      20.438199529312751      28.079999999999998
   174   1     -11.800000000000001      22.141382823422148      30.419999999999998
   175   1     -11.800000000000001      20.438199529312751      32.759999999999998
   176   1     -11.800000000000001      22.141382823422148      35.099999999999994
   177   1     -11.800000000000001      20.438199529312751      37.439999999999998
   178   1     -11.800000000000001      22.141382823422148      39.780000000000001
   179   1     -11.800000000000001      20.438199529312751      42.119999999999997
   180   1     -11.800000000000001      22.141382823422148      44.459999999999994
   181   1                 -13.275      22.992974470476845                       0
   182   1                 -13.275      24.696157764586243      2.3399999999999999
   183   1                 -13.275      22.992974470476845      4.6799999999999997
   184   1                 -13.275      24.696157764586243      7.0199999999999996
   185   1                 -13.275      22.992974470476845      9.3599999999999994
   186   1                 -13.275      24.696157764586243      11.699999999999999
   187   1                 -13.275      22.992974470476845      14.039999999999999
   188   1                 -13.275      24.696157764586243      16.379999999999999
   189   1                 -13.275      22.992974470476845      18.719999999999999
   190   1                 -13.275      24.696157764586243      21.059999999999999
   191   1                 -13.275      22.992974470476845      23.399999999999999
   192   1                 -13.275      24.696157764586243      25.739999999999998
   193   1                 -13.275      22.992974470476845      28.079999999999998
   194   1                 -13.275      24.696157764586243      30.419999999999998
   195   1                 -13.275      22.992974470476845      32.759999999999998
   196   1                 -13.275      24.696157764586243      35.099999999999994
   197   1                 -13.275      22.992974470476845      37.439999999999998
   198   1                 -13.275      24.696157764586243      39.780000000000001
   199   1                 -13.275      22.992974470476845      42.119999999999997
   200   1                 -13.275      24.696157764586243      44.459999999999994
   201   1      2.9500000000000002                       0                       0
   202   1      2.9500000000000002      1.7031832941093958      2.3399999999999999
   203   1      2.9500000000000002                       0      4.6799999999999997
   204   1      2.9500000000000002      1.7031832941093958      7.0199999999999996
   205   1      2.9500000000000002                       0      9.3599999999999994
   206   1      2.9500000000000002      1.7031832941093958      11.699999999999999
   207   1      2.9500000000000002                       0      14.039999999999999
   208   1      2.9500000000000002      1.7031832941093958      16.379999999999999
   209   1      2.9500000000000002                       0      18.719999999999999
   210   1      2.9500000000000002      1.7031832941093958      21.059999999999999
   211   1      2.9500000000000002                       0      23.399999999999999
   212   1      2.9500000000000002      1.7031832941093958      25.739999999999998
   213   1      2.9500000000000002                       0      28.079999999999998
   214   1      2.9500000000000002      1.7031832941093958      30.419999999999998
   215   1      2.9500000000000002                       0      32.759999999999998
   216   1      2.9500000000000002      1.7031832941093958      35.099999999999994
   217   1      2.9500000000000002                       0      37.439999999999998
   218   1      2.9500000000000002      1.7031832941093958      39.780000000000001
   219   1      2.9500000000000002                       0      42.119999999999997
   220   1      2.9500000000000002      1.7031832941093958      44.459999999999994
   221   1      1.4750000000000001      2.5547749411640939                       0
   222   1      1.4750000000000001      4.2579582352734899      2.3399999999999999
   223   1      1.4750000000000001      2.5547749411640939      4.6799999999999997
   224   1      1.4750000000000001      4.2579582352734899      7.0199999999999996
   225   1      1.4750000000000001      2.5547749411640939      9.3599999999999994
   226   1      1.4750000000000001      4.2579582352734899      11.699999999999999
   227   1      1.4750000000000001      2.5547749411640939      14.039999999999999
   228   1      1.4750000000000001      4.2579582352734899      16.379999999999999
   229   1      1.4750000000000001      2.5547749411640939      18.719999999999999
   230   1      1.4750000000000001      4.2579582352734899      21.059999999999999
   231   1      1.4750000000000001      2.5547749411640939      23.399999999999999
   232   1      1.4750000000000001      4.2579582352734899      25.739999999999998
   233   1      1.4750000000000001      2.5547749411640939      28.079999999999998
   234   1      1.4750000000000001      4.2579582352734899      30.419999999999998
   235   1      1.4750000000000001      2.5547749411640939      32.759999999999998
   236   1      1.4750000000000001      4.2579582352734899      35.099999999999994
   237   1      1.4750000000000001      2.5547749411640939      37.439999999999998
   238   1      1.4750000000000001      4.2579582352734899      39.780000000000001
   239   1      1.4750000000000001      2.5547749411640939      42.119999999999997
   240   1      1.4750000000000001      4.2579582352734899      44.459999999999994
   241   1                       0      5.1095498823281877                       0
   242   1  5.4585965377403533e-17      6.8127331764375834      2.3399999999999999
   243   1                       0      5.1095498823281877      4.6799999999999997
   244   1  5.4585965377403533e-17      6.8127331764375834      7.0199999999999996
   245   1                       0      5.1095498823281877      9.3599999999999994
   246   1  5.4585965377403533e-17      6.8127331764375834      11.699999999999999
   247   1                       0      5.1095498823281877      14.039999999999999
   248   1  5.4585965377403533e-17      6.8127331764375834      16.379999999999999
   249   1                       0      5.1095498823281877      18.719999999999999
   250   1  5.4585965377403533e-17      6.8127331764375834      21.059999999999999
   251   1                       0      5.1095498823281877      23.399999999999999
   252   1  5.4585965377403533e-17      6.8127331764375834      25.739999999999998
   253   1                       0      5.1095498823281877      28.079999999999998
   254   1  5.4585965377403533e-17      6.8127331764375834      30.419999999999998
   255   1                       0      5.1095498823281877      32.759999999999998
   256   1  5.4585965377403533e-17      6.8127331764375834      35.099999999999994
   257   1                       0      5.1095498823281877      37.439999999999998
   258   1  5.4585965377403533e-17      6.8127331764375834      39.780000000000001
   259   1                       0      5.1095498823281877      42.119999999999997
   260   1  5.4585965377403533e-17      6.8127331764375834      44.459999999999994
   261   1     -1.4750000000000005      7.6643248234922812                       0
   262   1     -1.4750000000000005      9.3675081176016768      2.3399999999999999
   263   1     -1.4750000000000005      7.6643248234922812      4.6799999999999997
   264   1     -1.4750000000000005      9.3675081176016768      7.0199999999999996
   265   1     -1.4750000000000005      7.6643248234922812      9.3599999999999994
   266   1     -1.4750000000000005      9.3675081176016768      11.699999999999999
   267   1     -1.4750000000000005      7.6643248234922812      14.039999999999999
   268   1     -1.4750000000000005      9.3675081176016768      16.379999999999999
   269   1     -1.4750000000000005      7.6643248234922812      18.719999999999999
   270   1     -1.4750000000000005      9.3675081176016768      21.059999999999999
   271   1     -1.4750000000000005      7.6643248234922812      23.399999999999999
   272   1     -1.4750000000000005      9.3675081176016768      25.739999999999998
   273   1     -1.4750000000000005      7.6643248234922812      28.079999999999998
   274   1     -1.4750000000000005      9.3675081176016768      30.419999999999998
   275   1     -1.4750000000000005      7.6643248234922812      32.759999999999998
   276   1     -1.4750000000000005      9.3675081176016768      35.099999999999994
   277   1     -1.4750000000000005      7.6643248234922812      37.439999999999998
   278   1     -1.4750000000000005      9.3675081176016768      39.780000000000001
   279   1     -1.4750000000000005      7.6643248234922812      42.119999999999997
   280   1     -1.4750000000000005      9.3675081176016768      44.459999999999994
   281   1     -2.9500000000000002      10.219099764656375                       0
   282   1     -2.9500000000000002      11.922283058765771      2.3399999999999999
   283   1     -2.9500000000000002      10.219099764656375      4.6799999999999997
   284   1     -2.9500000000000002      11.922283058765771      7.0199999999999996
   285   1     -2.9500000000000002      10.219099764656375      9.3599999999999994
   286   1     -2.9500000000000002      11.922283058765771      11.699999999999999
   287   1     -2.9500000000000002      10.219099764656375      14.039999999999999
   288   1     -2.9500000000000002      11.922283058765771      16.379999999999999
   289   1     -2.9500000000000002      10.219099764656375      18.719999999999999
   290   1     -2.9500000000000002      11.922283058765771      21.059999999999999
   291   1     -2.9500000000000002      10.219099764656375      23.399999999999999
   292   1     -2.9500000000000002      11.922283058765771      25.739999999999998
   293   1     -2.9500000000000002      10.219099764656375      28.079999999999998
   294   1     -2.9500000000000002      11.922283058765771      30.419999999999998
   295   1     -2.9500000000000002      10.219099764656375      32.759999999999998
   296   1     -2.9500000000000002      11.922283058765771      35.099999999999994
   297   1     -2.9500000000000002      10.219099764656375      37.439999999999998
   298   1     -2.9500000000000002      11.922283058765771      39.780000000000001
   299   1     -2.9500000000000002      10.219099764656375      42.119999999999997
   300   1     -2.9500000000000002      11.922283058765771      44.459999999999994
   301   1     -4.4249999999999998       12.77387470582047                       0
   302   1     -4.4249999999999998      14.477057999929865      2.3399999999999999
   303   1     -4.4249999999999998       12.77387470582047      4.6799999999999997
   304   1     -4.4249999999999998      14.477057999929865      7.0199999999999996
   305   1     -4.4249999999999998       12.77387470582047      9.3599999999999994
   306   1     -4.4249999999999998      14.477057999929865      11.699999999999999
   307   1     -4.4249999999999998       12.77387470582047      14.039999999999999
   308   1     -4.4249999999999998      14.477057999929865      16.379999999999999
   309   1     -4.4249999999999998       12.77387470582047      18.719999999999999
   310   1     -4.4249999999999998      14.477057999929865      21.059999999999999
   311   1     -4.4249999999999998       12.77387470582047      23.399999999999999
   312   1     -4.4249999999999998      14.477057999929865      25.739999999999998
   313   1     -4.4249999999999998       12.77387470582047      28.079999999999998
   314   1     -4.4249999999999998      14.477057999929865      30.419999999999998
   315   1     -4.4249999999999998       12.77387470582047      32.759999999999998
   316   1     -4.4249999999999998      14.477057999929865      35.099999999999994
   317   1     -4.4249999999999998       12.77387470582047      37.439999999999998
   318   1     -4.4249999999999998      14.477057999929865      39.780000000000001
   319   1     -4.4249999999999998       12.77387470582047      42.119999999999997
   320   1     -4.4249999999999998      14.477057999929865      44.459999999999994
   321   1     -5.9000000000000012      15.328649646984562                       0
   322   1     -5.9000000000000012       17.03183294109396      2.3399999999999999
   323   1     -5.9000000000000012      15.328649646984562      4.6799999999999997
   324   1     -5.9000000000000012       17.03183294109396      7.0199999999999996
   325   1     -5.9000000000000012      15.328649646984562      9.3599999999999994
   326   1     -5.9000000000000012       17.03183294109396      11.699999999999999
   327   1     -5.9000000000000012      15.328649646984562      14.039999999999999
   328   1     -5.9000000000000012       17.03183294109396      16.379999999999999
   329   1     -5.9000000000000012      15.328649646984562      18.719999999999999
   330   1     -5.9000000000000012       17.03183294109396      21.059999999999999
   331   1     -5.9000000000000012      15.328649646984562      23.399999999999999
   332   1     -5.9000000000000012       17.03183294109396      25.739999999999998
   333   1     -5.9000000000000012      15.328649646984562      28.079999999999998
   334   1     -5.9000000000000012       17.03183294109396      30.419999999999998
   335   1     -5.9000000000000012      15.328649646984562      32.759999999999998
   336   1     -5.9000000000000012       17.03183294109396      35.099999999999994
   337   1     -5.9000000000000012      15.328649646984562      37.439999999999998
   338   1     -5.9000000000000012       17.03183294109396      39.780000000000001
   339   1     -5.9000000000000012      15.328649646984562      42.119999999999997
   340   1     -5.9000000000000012       17.03183294109396      44.459999999999994
   341   1     -7.3750000000000009      17.883424588148657                       0
   342   1     -7.3750000000000009      19.586607882258054      2.3399999999999999
   343   1     -7.3750000000000009      17.883424588148657      4.6799999999999997
   344   1     -7.3750000000000009      19.586607882258054      7.0199999999999996
   345   1     -7.3750000000000009      17.883424588148657      9.3599999999999994
   346   1     -7.3750000000000009      19.586607882258054      11.699999999999999
   347   1     -7.3750000000000009      17.883424588148657      14.039999999999999
   348   1     -7.3750000000000009      19.586607882258054      16.379999999999999
   349   1     -7.3750000000000009      17.883424588148657      18.719999999999999
   350   1     -7.3750000000000009      19.586607882258054      21.059999999999999
   351   1     -7.3750000000000009      17.883424588148657      23.399999999999999
   352   1     -7.3750000000000009      19.586607882258054      25.739999999999998
   353   1     -7.3750000000000009      17.883424588148657      28.079999999999998
   354   1     -7.3750000000000009      19.586607882258054      30.419999999999998
   355   1     -7.3750000000000009      17.883424588148657      32.759999999999998
   356   1     -7.3750000000000009      19.586607882258054      35.099999999999994
   357   1     -7.3750000000000009      17.883424588148657      37.439999999999998
   358   1     -7.3750000000000009      19.586607882258054      39.780000000000001
   359   1     -7.3750000000000009      17.883424588148657      42.119999999999997
   360   1     -7.3750000000000009      19.586607882258054      44.459999999999994
   361   1     -8.8500000000000014      20.438199529312751                       0
   362   1     -8.8500000000000014      22.141382823422148      2.3399999999999999
   363   1     -8.8500000000000014      20.438199529312751      4.6799999999999997
   364   1     -8.8500000000000014      22.141382823422148      7.0199999999999996
   365   1     -8.8500000000000014      20.438199529312751      9.3599999999999994
   366   1     -8.8500000000000014      22.141382823422148      11.699999999999999
   367   1     -8.8500000000000014      20.438199529312751      14.039999999999999
   368   1     -8.8500000000000014      22.141382823422148      16.379999999999999
   369   1     -8.8500000000000014      20.438199529312751      18.719999999999999
   370   1     -8.8500000000000014      22.141382823422148      21.059999999999999
   371   1     -8.8500000000000014      20.438199529312751      23.399999999999999
   372   1     -8.8500000000000014      22.141382823422148      25.739999999999998
   373   1     -8.8500000000000014      20.438199529312751      28.079999999999998
   374   1     -8.8500000000000014      22.141382823422148      30.419999999999998
   375   1     -8.8500000000000014      20.438199529312751      32.759999999999998
   376   1     -8.8500000000000014      22.141382823422148      35.099999999999994
   377   1     -8.8500000000000014      20.438199529312751      37.439999999999998
   378   1     -8.8500000000000014      22.141382823422148      39.780000000000001
   379   1     -8.8500000000000014      20.438199529312751      42.119999999999997
   380   1     -8.8500000000000014      22.141382823422148      44.459999999999994
   381   1     -10.324999999999999      22.992974470476845                       0
   382   1     -10.324999999999999      24.696157764586243      2.3399999999999999
   383   1     -10.324999999999999      22.992974470476845      4.6799999999999997
   384   1     -10.324999999999999      24.696157764586243      7.0199999999999996
   385   1     -10.324999999999999      22.992974470476845      9.3599999999999994
   386   1     -10.324999999999999      24.696157764586243      11.699999999999999
   387   1     -10.324999999999999      22.992974470476845      14.039999999999999
   388   1     -10.324999999999999      24.696157764586243      16.379999999999999
   389   1     -10.324999999999999      22.992974470476845      18.719999999999999
   390   1     -10.324999999999999      24.696157764586243      21.059999999999999
   391   1     -10.324999999999999      22.992974470476845      23.399999999999999
   392   1     -10.324999999999999      24.696157764586243      25.739999999999998
   393   1     -10.324999999999999      22.992974470476845      28.079999999999998
   394   1     -10.324999999999999      24.696157764586243      30.419999999999998
   395   1     -10.324999999999999      22.992974470476845      32.759999999999998
   396   1     -10.324999999999999      24.696157764586243      35.099999999999994
   397   1     -10.324999999999999      22.992974470476845      37.439999999999998
   398   1     -10.324999999999999      24.696157764586243      39.780000000000001
   399   1     -10.324999999999999      22.992974470476845      42.119999999999997
   400   1     -10.324999999999999      24.696157764586243      44.459999999999994
   401   1      5.9000000000000004                       0                       0
   402   1      5.9000000000000004      1.7031832941093958      2.3399999999999999
   403   1      5.9000000000000004                       0      4.6799999999999997
   404   1      5.9000000000000004      1.7031832941093958      7.0199999999999996
   405   1      5.9000000000000004                       0      9.3599999999999994
   406   1      5.9000000000000004      1.7031832941093958      11.699999999999999
   407   1      5.9000000000000004                       0      14.039999999999999
   408   1      5.9000000000000004      1.7031832941093958      16.379999999999999
   409   1      5.9000000000000004                       0      18.719999999999999
   410   1      5.9000000000000004      1.7031832941093958      21.059999999999999
   411   1      5.9000000000000004                       0      23.399999999999999
   412   1      5.9000000000000004      1.7031832941093958      25.739999999999998
   413   1      5.9000000000000004                       0      28.079999999999998
   414   1      5.9000000000000004      1.7031832941093958      30.419999999999998
   415   1      5.9000000000000004                       0      32.759999999999998
   416   1      5.9000000000000004      1.7031832941093958      35.099999999999994
   417   1      5.9000000000000004                       0      37.439999999999998
   418   1      5.9000000000000004      1.7031832941093958      39.780000000000001
   419   1      5.9000000000000004                       0      42.119999999999997
   420   1      5.9000000000000004      1.7031832941093958      44.459999999999994
   421   1      4.4250000000000007      2.5547749411640939                       0
   422   1      4.4250000000000007      4.2579582352734899      2.3399999999999999
   423   1      4.4250000000000007      2.5547749411640939      4.6799999999999997
   424   1      4.4250000000000007      4.2579582352734899      7.0199999999999996
   425   1      4.4250000000000007      2.5547749411640939      9.3599999999999994
   426   1      4.4250000000000007      4.2579582352734899      11.699999999999999
   427   1      4.4250000000000007      2.5547749411640939      14.039999999999999
   428   1      4.4250000000000007      4.2579582352734899      16.379999999999999
   429   1      4.4250000000000007      2.5547749411640939      18.719999999999999
   430   1      4.4250000000000007      4.2579582352734899      21.059999999999999
   431   1      4.4250000000000007      2.5547749411640939      23.399999999999999
   432   1      4.4250000000000007      4.2579582352734899      25.739999999999998
   433   1      4.4250000000000007      2.5547749411640939      28.079999999999998
   434   1      4.4250000000000007      4.2579582352734899      30.419999999999998
   435   1      4.4250000000000007      2.5547749411640939      32.759999999999998
   436   1      4.4250000000000007      4.2579582352734899      35.099999999999994
   437   1      4.4250000000000007      2.5547749411640939      37.439999999999998
   438   1      4.4250000000000007      4.2579582352734899      39.780000000000001
   439   1      4.4250000000000007      2.5547749411640939      42.119999999999997
   440   1      4.4250000000000007      4.2579582352734899      44.459999999999994
   441   1      2.9500000000000002      5.1095498823281877                       0
   442   1      2.9500000000000002      6.8127331764375834      2.3399999999999999
   443   1      2.9500000000000002      5.1095498823281877      4.6799999999999997
   444   1      2.9500000000000002      6.8127331764375834      7.0199999999999996
   445   1      2.9500000000000002      5.1095498823281877      9.3599999999999994
   446   1      2.9500000000000002      6.8127331764375834      11.699999999999999
   447   1      2.9500000000000002      5.1095498823281877      14.039999999999999
   448   1      2.9500000000000002      6.8127331764375834      16.379999999999999
   449   1      2.9500000000000002      5.1095498823281877      18.719999999999999
   450   1      2.9500000000000002      6.8127331764375834      21.059999999999999
   451   1      2.9500000000000002      5.1095498823281877      23.399999999999999
   452   1      2.9500000000000002      6.8127331764375834      25.739999999999998
   453   1      2.9500000000000002      5.1095498823281877      28.079999999999998
   454   1      2.9500000000000002      6.8127331764375834      30.419999999999998
   455   1      2.9500000000000002      5.1095498823281877      32.759999999999998
   456   1      2.9500000000000002      6.8127331764375834      35.099999999999994
   457   1      2.9500000000000002      5.1095498823281877      37.439999999999998
   458   1      2.9500000000000002      6.8127331764375834      39.780000000000001
   459   1      2.9500000000000002      5.1095498823281877      42.119999999999997
   460   1      2.9500000000000002      6.8127331764375834      44.459999999999994
   461   1      1.4749999999999996      7.6643248234922812                       0
   462   1      1.4749999999999996      9.3675081176016768      2.3399999999999999
   463   1      1.4749999999999996      7.6643248234922812      4.6799999999999997
   464   1      1.4749999999999996      9.3675081176016768      7.0199999999999996
   465   1      1.4749999999999996      7.6643248234922812      9.3599999999999994
   466   1      1.4749999999999996      9.3675081176016768      11.699999999999999
   467   1      1.4749999999999996      7.6643248234922812      14.039999999999999
   468   1      1.4749999999999996      9.3675081176016768      16.379999999999999
   469   1      1.4749999999999996      7.6643248234922812      18.719999999999999
   470   1      1.4749999999999996      9.3675081176016768      21.059999999999999
   471   1      1.4749999999999996      7.6643248234922812      23.399999999999999
   472   1      1.4749999999999996      9.3675081176016768      25.739999999999998
   473   1      1.4749999999999996      7.6643248234922812      28.079999999999998
   474   1      1.4749999999999996      9.3675081176016768      30.419999999999998
   475   1      1.4749999999999996      7.6643248234922812      32.759999999999998
   476   1      1.4749999999999996      9.3675081176016768      35.099999999999994
   477   1      1.4749999999999996      7.6643248234922812      37.439999999999998
   478   1      1.4749999999999996      9.3675081176016768      39.780000000000001
   479   1      1.4749999999999996      7.6643248234922812      42.119999999999997
   480   1      1.4749999999999996      9.3675081176016768      44.459999999999994
   481   1                       0      10.219099764656375                       0
   482   1  5.4585965377403533e-17      11.922283058765771      2.3399999999999999
   483   1                       0      10.219099764656375      4.6799999999999997
   484   1  5.4585965377403533e-17      11.922283058765771      7.0199999999999996
   485   1                       0      10.219099764656375      9.3599999999999994
   486   1  5.4585965377403533e-17      11.922283058765771      11.699999999999999
   487   1                       0      10.219099764656375      14.039999999999999
   488   1  5.4585965377403533e-17      11.922283058765771      16.379999999999999
   489   1                       0      10.219099764656375      18.719999999999999
   490   1  5.4585965377403533e-17      11.922283058765771      21.059999999999999
   491   1                       0      10.219099764656375      23.399999999999999
   492   1  5.4585965377403533e-17      11.922283058765771      25.739999999999998
   493   1                       0      10.219099764656375      28.079999999999998
   494   1  5.4585965377403533e-17      11.922283058765771      30.419999999999998
   495   1                       0      10.219099764656375      32.759999999999998
   496   1  5.4585965377403533e-17      11.922283058765771      35.099999999999994
   497   1                       0      10.219099764656375      37.439999999999998
   498   1  5.4585965377403533e-17      11.922283058765771      39.780000000000001
   499   1                       0      10.219099764656375      42.119999999999997
   500   1  5.4585965377403533e-17      11.922283058765771      44.459999999999994
   501   1     -1.4749999999999996       12.77387470582047                       0
   502   1     -1.4749999999999996      14.477057999929865      2.3399999999999999
   503   1     -1.4749999999999996       12.77387470582047      4.6799999999999997
   504   1     -1.4749999999999996      14.477057999929865      7.0199999999999996
   505   1     -1.4749999999999996       12.77387470582047      9.3599999999999994
   506   1     -1.4749999999999996      14.477057999929865      11.699999999999999
   507   1     -1.4749999999999996       12.77387470582047      14.039999999999999
   508   1     -1.4749999999999996      14.477057999929865      16.379999999999999
   509   1     -1.4749999999999996       12.77387470582047      18.719999999999999
   510   1     -1.4749999999999996      14.477057999929865      21.059999999999999
   511   1     -1.4749999999999996       12.77387470582047      23.399999999999999
   512   1     -1.4749999999999996      14.477057999929865      25.739999999999998
   513   1     -1.4749999999999996       12.77387470582047      28.079999999999998
   514   1     -1.4749999999999996      14.477057999929865      30.419999999999998
   515   1     -1.4749999999999996       12.77387470582047      32.759999999999998
   516   1     -1.4749999999999996      14.477057999929865      35.099999999999994
   517   1     -1.4749999999999996       12.77387470582047      37.439999999999998
   518   1     -1.4749999999999996      14.477057999929865      39.780000000000001
   519   1     -1.4749999999999996       12.77387470582047      42.119999999999997
   520   1     -1.4749999999999996      14.477057999929865      44.459999999999994
   521   1     -2.9500000000000011      15.328649646984562                       0
   522   1     -2.9500000000000011       17.03183294109396      2.3399999999999999
   523   1     -2.9500000000000011      15.328649646984562      4.6799999999999997
   524   1     -2.9500000000000011       17.03183294109396      7.0199999999999996
   525   1     -2.9500000000000011      15.328649646984562      9.3599999999999994
   526   1     -2.9500000000000011       17.03183294109396      11.699999999999999
   527   1     -2.9500000000000011      15.328649646984562      14.039999999999999
   528   1     -2.9500000000000011       17.03183294109396      16.379999999999999
   529   1     -2.9500000000000011      15.328649646984562      18.719999999999999
   530   1     -2.9500000000000011       17.03183294109396      21.059999999999999
   531   1     -2.9500000000000011      15.328649646984562      23.399999999999999
   532   1     -2.9500000000000011       17.03183294109396      25.739999999999998
   533   1     -2.9500000000000011      15.328649646984562      28.079999999999998
   534   1     -2.9500000000000011       17.03183294109396      30.419999999999998
   535   1     -2.9500000000000011      15.328649646984562      32.759999999999998
   536   1     -2.9500000000000011       17.03183294109396      35.099999999999994
   537   1     -2.9500000000000011      15.328649646984562      37.439999999999998
   538   1     -2.9500000000000011       17.03183294109396      39.780000000000001
   539   1     -2.9500000000000011      15.328649646984562      42.119999999999997
   540   1     -2.9500000000000011       17.03183294109396      44.459999999999994
   541   1     -4.4250000000000007      17.883424588148657                       0
   542   1     -4.4250000000000007      19.586607882258054      2.3399999999999999
   543   1     -4.4250000000000007      17.883424588148657      4.6799999999999997
   544   1     -4.4250000000000007      19.586607882258054      7.0199999999999996
   545   1     -4.4250000000000007      17.883424588148657      9.3599999999999994
   546   1     -4.4250000000000007      19.586607882258054      11.699999999999999
   547   1     -4.4250000000000007      17.883424588148657      14.039999999999999
   548   1     -4.4250000000000007      19.586607882258054      16.379999999999999
   549   1     -4.4250000000000007      17.883424588148657      18.719999999999999
   550   1     -4.4250000000000007      19.586607882258054      21.059999999999999
   551   1     -4.4250000000000007      17.883424588148657      23.399999999999999
   552   1     -4.4250000000000007      19.586607882258054      25.739999999999998
   553   1     -4.4250000000000007      17.883424588148657      28.079999999999998
   554   1     -4.4250000000000007      19.586607882258054      30.419999999999998
   555   1     -4.4250000000000007      17.883424588148657      32.759999999999998
   556   1     -4.4250000000000007      19.586607882258054      35.099999999999994
   557   1     -4.4250000000000007      17.883424588148657      37.439999999999998
   558   1     -4.4250000000000007      19.586607882258054      39.780000000000001
   559   1     -4.4250000000000007      17.883424588148657      42.119999999999997
   560   1     -4.4250000000000007      19.586607882258054      44.459999999999994
   561   1     -5.9000000000000004      20.438199529312751                       0
   562   1     -5.9000000000000004      22.141382823422148      2.3399999999999999
   563   1     -5.9000000000000004      20.438199529312751      4.6799999999999997
   564   1     -5.9000000000000004      22.141382823422148      7.0199999999999996
   565   1     -5.9000000000000004      20.438199529312751      9.3599999999999994
   566   1     -5.9000000000000004      22.141382823422148      11.699999999999999
   567   1     -5.9000000000000004      20.438199529312751      14.039999999999999
   568   1     -5.9000000000000004      22.141382823422148      16.379999999999999
   569   1     -5.9000000000000004      20.438199529312751      18.719999999999999
   570   1     -5.9000000000000004      22.141382823422148      21.059999999999999
   571   1     -5.9000000000000004      20.438199529312751      23.399999999999999
   572   1     -5.9000000000000004      22.141382823422148      25.739999999999998
   573   1     -5.9000000000000004      20.438199529312751      28.079999999999998
   574   1     -5.9000000000000004      22.141382823422148      30.419999999999998
   575   1     -5.9000000000000004      20.438199529312751      32.759999999999998
   576   1     -5.9000000000000004      22.141382823422148      35.099999999999994
   577   1     -5.9000000000000004      20.438199529312751      37.439999999999998
   578   1     -5.9000000000000004      22.141382823422148      39.780000000000001
   579   1     -5.9000000000000004      20.438199529312751      42.119999999999997
   580   1     -5.9000000000000004      22.141382823422148      44.459999999999994
   581   1                  -7.375      22.992974470476845                       0
   582   1                  -7.375      24.696157764586243      2.3399999999999999
   583   1                  -7.375      22.992974470476845      4.6799999999999997
   584   1                  -7.375      24.696157764586243      7.0199999999999996
   585   1                  -7.375      22.992974470476845      9.3599999999999994
   586   1                  -7.375      24.696157764586243      11.699999999999999
   587   1                  -7.375      22.992974470476845      14.039999999999999
   588   1                  -7.375      24.696157764586243      16.379999999999999
   589   1                  -7.375      22.992974470476845      18.719999999999999
   590   1                  -7.375      24.696157764586243      21.059999999999999
   591   1                  -7.375      22.992974470476845      23.399999999999999
   592   1                  -7.375      24.696157764586243      25.739999999999998
   593   1                  -7.375      22.992974470476845      28.079999999999998
   594   1                  -7.375      24.696157764586243      30.419999999999998
   595   1                  -7.375      22.992974470476845      32.759999999999998
   596   1                  -7.375      24.696157764586243      35.099999999999994
   597   1                  -7.375      22.992974470476845      37.439999999999998
   598   1                  -7.375      24.696157764586243      39.780000000000001
   599   1                  -7.375      22.992974470476845      42.119999999999997
   600   1                  -7.375      24.696157764586243      44.459999999999994
   601   1      8.8500000000000014                       0                       0
   602   1      8.8500000000000014      1.7031832941093958      2.3399999999999999
   603   1      8.8500000000000014                       0      4.6799999999999997
   604   1      8.8500000000000014      1.7031832941093958      7.0199999999999996
   605   1      8.8500000000000014                       0      9.3599999999999994
   606   1      8.8500000000000014      1.7031832941093958      11.699999999999999
   607   1      8.8500000000000014                       0      14.039999999999999
   608   1      8.8500000000000014      1.7031832941093958      16.379999999999999
   609   1      8.8500000000000014                       0      18.719999999999999
   610   1      8.8500000000000014      1.7031832941093958      21.059999999999999
   611   1      8.8500000000000014                       0      23.399999999999999
   612   1      8.8500000000000014      1.7031832941093958      25.739999999999998
   613   1      8.8500000000000014                       0      28.079999999999998
   614   1      8.8500000000000014      1.7031832941093958      30.419999999999998
   615   1      8.8500000000000014                       0      32.759999999999998
   616   1      8.8500000000000014      1.7031832941093958      35.099999999999994
   617   1      8.8500000000000014                       0      37.439999999999998
   618   1      8.8500000000000014      1.7031832941093958      39.780000000000001
   619   1      8.8500000000000014                       0      42.119999999999997
   620   1      8.8500000000000014      1.7031832941093958      44.459999999999994
   621   1      7.3750000000000018      2.5547749411640939                       0
   622   1      7.3750000000000018      4.2579582352734899      2.3399999999999999
   623   1      7.3750000000000018      2.5547749411640939      4.6799999999999997
   624   1      7.3750000000000018      4.2579582352734899      7.0199999999999996
   625   1      7.3750000000000018      2.5547749411640939      9.3599999999999994
   626   1      7.3750000000000018      4.2579582352734899      11.699999999999999
   627   1      7.3750000000000018      2.5547749411640939      14.039999999999999
   628   1      7.3750000000000018      4.2579582352734899      16.379999999999999
   629   1      7.3750000000000018      2.5547749411640939      18.719999999999999
   630   1      7.3750000000000018      4.2579582352734899      21.059999999999999
   631   1      7.3750000000000018      2.5547749411640939      23.399999999999999
   632   1      7.3750000000000018      4.2579582352734899      25.739999999999998
   633   1      7.3750000000000018      2.5547749411640939      28.079999999999998
   634   1      7.3750000000000018      4.2579582352734899      30.419999999999998
   635   1      7.3750000000000018      2.5547749411640939      32.759999999999998
   636   1      7.3750000000000018      4.2579582352734899      35.099999999999994
   637   1      7.3750000000000018      2.5547749411640939      37.439999999999998
   638   1      7.3750000000000018      4.2579582352734899      39.780000000000001
   639   1      7.3750000000000018      2.5547749411640939      42.119999999999997
   640   1      7.3750000000000018      4.2579582352734899      44.459999999999994
   641   1      5.9000000000000012      5.1095498823281877                       0
   642   1      5.9000000000000012      6.8127331764375834      2.3399999999999999
   643   1      5.9000000000000012      5.1095498823281877      4.6799999999999997
   644   1      5.9000000000000012      6.8127331764375834      7.0199999999999996
   645   1      5.9000000000000012      5.1095498823281877      9.3599999999999994
   646   1      5.9000000000000012      6.8127331764375834      11.699999999999999
   647   1      5.9000000000000012      5.1095498823281877      14.039999999999999
   648   1      5.9000000000000012      6.8127331764375834      16.379999999999999
   649   1      5.9000000000000012      5.1095498823281877      18.719999999999999
   650   1      5.9000000000000012      6.8127331764375834      21.059999999999999
   651   1      5.9000000000000012      5.1095498823281877      23.399999999999999
   652   1      5.9000000000000012      6.8127331764375834      25.739999999999998
   653   1      5.9000000000000012      5.1095498823281877      28.079999999999998
   654   1      5.9000000000000012      6.8127331764375834      30.419999999999998
   655   1      5.9000000000000012      5.1095498823281877      32.759999999999998
   656   1      5.9000000000000012      6.8127331764375834      35.099999999999994
   657   1      5.9000000000000012      5.1095498823281877      37.439999999999998
   658   1      5.9000000000000012      6.8127331764375834      39.780000000000001
   659   1      5.9000000000000012      5.1095498823281877      42.119999999999997
   660   1      5.9000000000000012      6.8127331764375834      44.459999999999994
   661   1      4.4250000000000007      7.6643248234922812                       0
   662   1      4.4250000000000007      9.3675081176016768      2.3399999999999999
   663   1      4.4250000000000007      7.6643248234922812      4.6799999999999997
   664   1      4.4250000000000007      9.3675081176016768      7.0199999999999996
   665   1      4.4250000000000007      7.6643248234922812      9.3599999999999994
   666   1      4.4250000000000007      9.3675081176016768      11.699999999999999
   667   1      4.4250000000000007      7.6643248234922812      14.039999999999999
   668   1      4.4250000000000007      9.3675081176016768      16.379999999999999
   669   1      4.4250000000000007      7.6643248234922812      18.719999999999999
   670   1      4.4250000000000007      9.3675081176016768      21.059999999999999
   671   1      4.4250000000000007      7.6643248234922812      23.399999999999999
   672   1      4.4250000000000007      9.3675081176016768      25.739999999999998
   673   1      4.4250000000000007      7.6643248234922812      28.079999999999998
   674   1      4.4250000000000007      9.3675081176016768      30.419999999999998
   675   1      4.4250000000000007      7.6643248234922812      32.759999999999998
   676   1      4.4250000000000007      9.3675081176016768      35.099999999999994
   677   1      4.4250000000000007      7.6643248234922812      37.439999999999998
   678   1      4.4250000000000007      9.3675081176016768      39.780000000000001
   679   1      4.4250000000000007      7.6643248234922812      42.119999999999997
   680   1      4.4250000000000007      9.3675081176016768      44.459999999999994
   681   1      2.9500000000000011      10.219099764656375                       0
   682   1      2.9500000000000011      11.922283058765771      2.3399999999999999
   683   1      2.9500000000000011      10.219099764656375      4.6799999999999997
   684   1      2.9500000000000011      11.922283058765771      7.0199999999999996
   685   1      2.9500000000000011      10.219099764656375      9.3599999999999994
   686   1      2.9500000000000011      11.922283058765771      11.699999999999999
   687   1      2.9500000000000011      10.219099764656375      14.039999999999999
   688   1      2.9500000000000011      11.922283058765771      16.379999999999999
   689   1      2.9500000000000011      10.219099764656375      18.719999999999999
   690   1      2.9500000000000011      11.922283058765771      21.059999999999999
   691   1      2.9500000000000011      10.219099764656375      23.399999999999999
   692   1      2.9500000000000011      11.922283058765771      25.739999999999998
   693   1      2.9500000000000011      10.219099764656375      28.079999999999998
   694   1      2.9500000000000011      11.922283058765771      30.419999999999998
   695   1      2.9500000000000011      10.219099764656375      32.759999999999998
   696   1      2.9500000000000011      11.922283058765771      35.099999999999994
   697   1      2.9500000000000011      10.219099764656375      37.439999999999998
   698   1      2.9500000000000011      11.922283058765771      39.780000000000001
   699   1      2.9500000000000011      10.219099764656375      42.119999999999997
   700   1      2.9500000000000011      11.922283058765771      44.459999999999994
   701   1      1.4750000000000014       12.77387470582047                       0
   702   1      1.4750000000000014      14.477057999929865      2.3399999999999999
   703   1      1.4750000000000014       12.77387470582047      4.6799999999999997
   704   1      1.4750000000000014      14.477057999929865      7.0199999999999996
   705   1      1.4750000000000014       12.77387470582047      9.3599999999999994
   706   1      1.4750000000000014      14.477057999929865      11.699999999999999
   707   1      1.4750000000000014       12.77387470582047      14.039999999999999
   708   1      1.4750000000000014      14.477057999929865      16.379999999999999
   709   1      1.4750000000000014       12.77387470582047      18.719999999999999
   710   1      1.4750000000000014      14.477057999929865      21.059999999999999
   711   1      1.4750000000000014       12.77387470582047      23.399999999999999
   712   1      1.4750000000000014      14.477057999929865      25.739999999999998
   713   1      1.4750000000000014       12.77387470582047      28.079999999999998
   714   1      1.4750000000000014      14.477057999929865      30.419999999999998
   715   1      1.4750000000000014       12.77387470582047      32.759999999999998
   716   1      1.4750000000000014      14.477057999929865      35.099999999999994
   717   1      1.4750000000000014       12.77387470582047      37.439999999999998
   718   1      1.4750000000000014      14.477057999929865      39.780000000000001
   719   1      1.4750000000000014       12.77387470582047      42.119999999999997
   720   1      1.4750000000000014      14.477057999929865      44.459999999999994
   721   1                       0      15.328649646984562                       0
   722   1  5.4585965377403533e-17       17.03183294109396      2.3399999999999999
   723   1                       0      15.328649646984562      4.6799999999999997
   724   1  5.4585965377403533e-17       17.03183294109396      7.0199999999999996
   725   1                       0      15.328649646984562      9.3599999999999994
   726   1  5.4585965377403533e-17       17.03183294109396      11.699999999999999
   727   1                       0      15.328649646984562      14.039999999999999
   728   1  5.4585965377403533e-17       17.03183294109396      16.379999999999999
   729   1                       0      15.328649646984562      18.719999999999999
   730   1  5.4585965377403533e-17       17.03183294109396      21.059999999999999
   731   1                       0      15.328649646984562      23.399999999999999
   732   1  5.4585965377403533e-17       17.03183294109396      25.739999999999998
   733   1                       0      15.328649646984562      28.079999999999998
   734   1  5.4585965377403533e-17       17.03183294109396      30.419999999999998
   735   1                       0      15.328649646984562      32.759999999999998
   736   1  5.4585965377403533e-17       17.03183294109396      35.099999999999994
   737   1                       0      15.328649646984562      37.439999999999998
   738   1  5.4585965377403533e-17       17.03183294109396      39.780000000000001
   739   1                       0      15.328649646984562      42.119999999999997
   740   1  5.4585965377403533e-17       17.03183294109396      44.459999999999994
   741   1     -1.4749999999999996      17.883424588148657                       0
   742   1     -1.4749999999999996      19.586607882258054      2.3399999999999999
   743   1     -1.4749999999999996      17.883424588148657      4.6799999999999997
   744   1     -1.4749999999999996      19.586607882258054      7.0199999999999996
   745   1     -1.4749999999999996      17.883424588148657      9.3599999999999994
   746   1     -1.4749999999999996      19.586607882258054      11.699999999999999
   747   1     -1.4749999999999996      17.883424588148657      14.039999999999999
   748   1     -1.4749999999999996      19.586607882258054      16.379999999999999
   749   1     -1.4749999999999996      17.883424588148657      18.719999999999999
   750   1     -1.4749999999999996      19.586607882258054      21.059999999999999
   751   1     -1.4749999999999996      17.883424588148657      23.399999999999999
   752   1     -1.4749999999999996      19.586607882258054      25.739999999999998
   753   1     -1.4749999999999996      17.883424588148657      28.079999999999998
   754   1     -1.4749999999999996      19.586607882258054      30.419999999999998
   755   1     -1.4749999999999996      17.883424588148657      32.759999999999998
   756   1     -1.4749999999999996      19.586607882258054      35.099999999999994
   757   1     -1.4749999999999996      17.883424588148657      37.439999999999998
   758   1     -1.4749999999999996      19.586607882258054      39.780000000000001
   759   1     -1.4749999999999996      17.883424588148657      42.119999999999997
   760   1     -1.4749999999999996      19.586607882258054      44.459999999999994
   761   1     -2.9499999999999993      20.438199529312751                       0
   762   1     -2.9499999999999993      22.141382823422148      2.3399999999999999
   763   1     -2.9499999999999993      20.438199529312751      4.6799999999999997
   764   1     -2.9499999999999993      22.141382823422148      7.0199999999999996
   765   1     -2.9499999999999993      20.438199529312751      9.3599999999999994
   766   1     -2.9499999999999993      22.141382823422148      11.699999999999999
   767   1     -2.9499999999999993      20.438199529312751      14.039999999999999
   768   1     -2.9499999999999993      22.141382823422148      16.379999999999999
   769   1     -2.9499999999999993      20.438199529312751      18.719999999999999
   770   1     -2.9499999999999993      22.141382823422148      21.059999999999999
   771   1     -2.9499999999999993      20.438199529312751      23.399999999999999
   772   1     -2.9499999999999993      22.141382823422148      25.739999999999998
   773   1     -2.9499999999999993      20.438199529312751      28.079999999999998
   774   1     -2.9499999999999993      22.141382823422148      30.419999999999998
   775   1     -2.9499999999999993      20.438199529312751      32.759999999999998
   776   1     -2.9499999999999993      22.141382823422148      35.099999999999994
   777   1     -2.9499999999999993      20.438199529312751      37.439999999999998
   778   1     -2.9499999999999993      22.141382823422148      39.780000000000001
   779   1     -2.9499999999999993      20.438199529312751      42.119999999999997
   780   1     -2.9499999999999993      22.141382823422148      44.459999999999994
   781   1     -4.4249999999999989      22.992974470476845                       0
   782   1     -4.4249999999999989      24.696157764586243      2.3399999999999999
   783   1     -4.4249999999999989      22.992974470476845      4.6799999999999997
   784   1     -4.4249999999999989      24.696157764586243      7.0199999999999996
   785   1     -4.4249999999999989      22.992974470476845      9.3599999999999994
   786   1     -4.4249999999999989      24.696157764586243      11.699999999999999
   787   1     -4.4249999999999989      22.992974470476845      14.039999999999999
   788   1     -4.4249999999999989      24.696157764586243      16.379999999999999
   789   1     -4.4249999999999989      22.992974470476845      18.719999999999999
   790   1     -4.4249999999999989      24.696157764586243      21.059999999999999
   791   1     -4.4249999999999989      22.992974470476845      23.399999999999999
   792   1     -4.4249999999999989      24.696157764586243      25.739999999999998
   793   1     -4.4249999999999989      22.992974470476845      28.079999999999998
   794   1     -4.4249999999999989      24.696157764586243      30.419999999999998
   795   1     -4.4249999999999989      22.992974470476845      32.759999999999998
   796   1     -4.4249999999999989      24.696157764586243      35.099999999999994
   797   1     -4.4249999999999989      22.992974470476845      37.439999999999998
   798   1     -4.4249999999999989      24.696157764586243      39.780000000000001
   799   1     -4.4249999999999989      22.992974470476845      42.119999999999997
   800   1     -4.4249999999999989      24.696157764586243      44.459999999999994
   801   1      11.800000000000001                       0                       0
   802   1      11.800000000000001      1.7031832941093958      2.3399999999999999
   803   1      11.800000000000001                       0      4.6799999999999997
   804   1      11.800000000000001      1.7031832941093958      7.0199999999999996
   805   1      11.800000000000001                       0      9.3599999999999994
   806   1      11.800000000000001      1.7031832941093958      11.699999999999999
   807   1      11.800000000000001                       0      14.039999999999999
   808   1      11.800000000000001      1.7031832941093958      16.379999999999999
   809   1      11.800000000000001                       0      18.719999999999999
   810   1      11.800000000000001      1.7031832941093958      21.059999999999999
   811   1      11.800000000000001                       0      23.399999999999999
   812   1      11.800000000000001      1.7031832941093958      25.739999999999998
   813   1      11.800000000000001                       0      28.079999999999998
   814   1      11.800000000000001      1.7031832941093958      30.419999999999998
   815   1      11.800000000000001                       0      32.759999999999998
   816   1      11.800000000000001      1.7031832941093958      35.099999999999994
   817   1      11.800000000000001                       0      37.439999999999998
   818   1      11.800000000000001      1.7031832941093958      39.780000000000001
   819   1      11.800000000000001                       0      42.119999999999997
   820   1      11.800000000000001      1.7031832941093958      44.459999999999994
   821   1      10.325000000000001      2.5547749411640939                       0
   822   1      10.325000000000001      4.2579582352734899      2.3399999999999999
   823   1      10.325000000000001      2.5547749411640939      4.6799999999999997
   824   1      10.325000000000001      4.2579582352734899      7.0199999999999996
   825   1      10.325000000000001      2.5547749411640939      9.3599999999999994
   826   1      10.325000000000001      4.2579582352734899      11.699999999999999
   827   1      10.325000000000001      2.5547749411640939      14.039999999999999
   828   1      10.325000000000001      4.2579582352734899      16.379999999999999
   829   1      10.325000000000001      2.5547749411640939      18.719999999999999
   830   1      10.325000000000001      4.2579582352734899      21.059999999999999
   831   1      10.325000000000001      2.5547749411640939      23.399999999999999
   832   1      10.325000000000001      4.2579582352734899      25.739999999999998
   833   1      10.325000000000001      2.5547749411640939      28.079999999999998
   834   1      10.325000000000001      4.2579582352734899      30.419999999999998
   835   1      10.325000000000001      2.5547749411640939      32.759999999999998
   836   1      10.325000000000001      4.2579582352734899      35.099999999999994
   837   1      10.325000000000001      2.5547749411640939      37.439999999999998
   838   1      10.325000000000001      4.2579582352734899      39.780000000000001
   839   1      10.325000000000001      2.5547749411640939      42.119999999999997
   840   1      10.325000000000001      4.2579582352734899      44.459999999999994
   841   1      8.8500000000000014      5.1095498823281877                       0
   842   1      8.8500000000000014      6.8127331764375834      2.3399999999999999
   843   1      8.8500000000000014      5.1095498823281877      4.6799999999999997
   844   1      8.8500000000000014      6.8127331764375834      7.0199999999999996
   845   1      8.8500000000000014      5.1095498823281877      9.3599999999999994
   846   1      8.8500000000000014      6.8127331764375834      11.699999999999999
   847   1      8.8500000000000014      5.1095498823281877      14.039999999999999
   848   1      8.8500000000000014      6.8127331764375834      16.379999999999999
   849   1      8.8500000000000014      5.1095498823281877      18.719999999999999
   850   1      8.8500000000000014      6.8127331764375834      21.059999999999999
   851   1      8.8500000000000014      5.1095498823281877      23.399999999999999
   852   1      8.8500000000000014      6.8127331764375834      25.739999999999998
   853   1      8.8500000000000014      5.1095498823281877      28.079999999999998
   854   1      8.8500000000000014      6.8127331764375834      30.419999999999998
   855   1      8.8500000000000014      5.1095498823281877      32.759999999999998
   856   1      8.8500000000000014      6.8127331764375834      35.099999999999994
   857   1      8.8500000000000014      5.1095498823281877      37.439999999999998
   858   1      8.8500000000000014      6.8127331764375834      39.780000000000001
   859   1      8.8500000000000014      5.1095498823281877      42.119999999999997
   860   1      8.8500000000000014      6.8127331764375834      44.459999999999994
   861   1                   7.375      7.6643248234922812                       0
   862   1                   7.375      9.3675081176016768      2.3399999999999999
   863   1                   7.375      7.6643248234922812      4.6799999999999997
   864   1                   7.375      9.3675081176016768      7.0199999999999996
   865   1                   7.375      7.6643248234922812      9.3599999999999994
   866   1                   7.375      9.3675081176016768      11.699999999999999
   867   1                   7.375      7.6643248234922812      14.039999999999999
   868   1                   7.375      9.3675081176016768      16.379999999999999
   869   1                   7.375      7.6643248234922812      18.719999999999999
   870   1                   7.375      9.3675081176016768      21.059999999999999
   871   1                   7.375      7.6643248234922812      23.399999999999999
   872   1                   7.375      9.3675081176016768      25.739999999999998
   873   1                   7.375      7.6643248234922812      28.079999999999998
   874   1                   7.375      9.3675081176016768      30.419999999999998
   875   1                   7.375      7.6643248234922812      32.759999999999998
   876   1                   7.375      9.3675081176016768      35.099999999999994
   877   1                   7.375      7.6643248234922812      37.439999999999998
   878   1                   7.375      9.3675081176016768      39.780000000000001
   879   1                   7.375      7.6643248234922812      42.119999999999997
   880   1                   7.375      9.3675081176016768      44.459999999999994
   881   1      5.9000000000000004      10.219099764656375                       0
   882   1      5.9000000000000004      11.922283058765771      2.3399999999999999
   883   1      5.9000000000000004      10.219099764656375      4.6799999999999997
   884   1      5.9000000000000004      11.922283058765771      7.0199999999999996
   885   1      5.9000000000000004      10.219099764656375      9.3599999999999994
   886   1      5.9000000000000004      11.922283058765771      11.699999999999999
   887   1      5.9000000000000004      10.219099764656375      14.039999999999999
   888   1      5.9000000000000004      11.922283058765771      16.379999999999999
   889   1      5.9000000000000004      10.219099764656375      18.719999999999999
   890   1      5.9000000000000004      11.922283058765771      21.059999999999999
   891   1      5.9000000000000004      10.219099764656375      23.399999999999999
   892   1      5.9000000000000004      11.922283058765771      25.739999999999998
   893   1      5.9000000000000004      10.219099764656375      28.079999999999998
   894   1      5.9000000000000004      11.922283058765771      30.419999999999998
   895   1      5.9000000000000004      10.219099764656375      32.759999999999998
   896   1      5.9000000000000004      11.922283058765771      35.099999999999994
   897   1      5.9000000000000004      10.219099764656375      37.439999999999998
   898   1      5.9000000000000004      11.922283058765771      39.780000000000001
   899   1      5.9000000000000004      10.219099764656375      42.119999999999997
   900   1      5.9000000000000004      11.922283058765771      44.459999999999994
   901   1      4.4250000000000007       12.77387470582047                       0
   902   1      4.4250000000000007      14.477057999929865      2.3399999999999999
   903   1      4.4250000000000007       12.77387470582047      4.6799999999999997
   904   1      4.4250000000000007      14.477057999929865      7.0199999999999996
   905   1      4.4250000000000007       12.77387470582047      9.3599999999999994
   906   1      4.4250000000000007      14.477057999929865      11.699999999999999
   907   1      4.4250000000000007       12.77387470582047      14.039999999999999
   908   1      4.4250000000000007      14.477057999929865      16.379999999999999
   909   1      4.4250000000000007       12.77387470582047      18.719999999999999
   910   1      4.4250000000000007      14.477057999929865      21.059999999999999
   911   1      4.4250000000000007       12.77387470582047      23.399999999999999
   912   1      4.4250000000000007      14.477057999929865      25.739999999999998
   913   1      4.4250000000000007       12.77387470582047      28.079999999999998
   914   1      4.4250000000000007      14.477057999929865      30.419999999999998
   915   1      4.4250000000000007       12.77387470582047      32.759999999999998
   916   1      4.4250000000000007      14.477057999929865      35.099999999999994
   917   1      4.4250000000000007       12.77387470582047      37.439999999999998
   918   1      4.4250000000000007      14.477057999929865      39.780000000000001
   919   1      4.4250000000000007       12.77387470582047      42.119999999999997
   920   1      4.4250000000000007      14.477057999929865      44.459999999999994
   921   1      2.9499999999999993      15.328649646984562                       0
   922   1      2.9499999999999993       17.03183294109396      2.3399999999999999
   923   1      2.9499999999999993      15.328649646984562      4.6799999999999997
   924   1      2.9499999999999993       17.03183294109396      7.0199999999999996
   925   1      2.9499999999999993      15.328649646984562      9.3599999999999994
   926   1      2.9499999999999993       17.03183294109396      11.699999999999999
   927   1      2.9499999999999993      15.328649646984562      14.039999999999999
   928   1      2.9499999999999993       17.03183294109396      16.379999999999999
   929   1      2.9499999999999993      15.328649646984562      18.719999999999999
   930   1      2.9499999999999993       17.03183294109396      21.059999999999999
   931   1      2.9499999999999993      15.328649646984562      23.399999999999999
   932   1      2.9499999999999993       17.03183294109396      25.739999999999998
   933   1      2.9499999999999993      15.328649646984562      28.079999999999998
   934   1      2.9499999999999993       17.03183294109396      30.419999999999998
   935   1      2.9499999999999993      15.328649646984562      32.759999999999998
   936   1      2.9499999999999993       17.03183294109396      35.099999999999994
   937   1      2.9499999999999993      15.328649646984562      37.439999999999998
   938   1      2.9499999999999993       17.03183294109396      39.780000000000001
   939   1      2.9499999999999993      15.328649646984562      42.119999999999997
   940   1      2.9499999999999993       17.03183294109396      44.459999999999994
   941   1      1.4749999999999996      17.883424588148657                       0
   942   1      1.4749999999999996      19.586607882258054      2.3399999999999999
   943   1      1.4749999999999996      17.883424588148657      4.6799999999999997
   944   1      1.4749999999999996      19.586607882258054      7.0199999999999996
   945   1      1.4749999999999996      17.883424588148657      9.3599999999999994
   946   1      1.4749999999999996      19.586607882258054      11.699999999999999
   947   1      1.4749999999999996      17.883424588148657      14.039999999999999
   948   1      1.4749999999999996      19.586607882258054      16.379999999999999
   949   1      1.4749999999999996      17.883424588148657      18.719999999999999
   950   1      1.4749999999999996      19.586607882258054      21.059999999999999
   951   1      1.4749999999999996      17.883424588148657      23.399999999999999
   952   1      1.4749999999999996      19.586607882258054      25.739999999999998
   953   1      1.4749999999999996      17.883424588148657      28.079999999999998
   954   1      1.4749999999999996      19.586607882258054      30.419999999999998
   955   1      1.4749999999999996      17.883424588148657      32.759999999999998
   956   1      1.4749999999999996      19.586607882258054      35.099999999999994
   957   1      1.4749999999999996      17.883424588148657      37.439999999999998
   958   1      1.4749999999999996      19.586607882258054      39.780000000000001
   959   1      1.4749999999999996      17.883424588148657      42.119999999999997
   960   1      1.4749999999999996      19.586607882258054      44.459999999999994
   961   1                       0      20.438199529312751                       0
   962   1  5.4585965377403533e-17      22.141382823422148      2.3399999999999999
   963   1                       0      20.438199529312751      4.6799999999999997
   964   1  5.4585965377403533e-17      22.141382823422148      7.0199999999999996
   965   1                       0      20.438199529312751      9.3599999999999994
   966   1  5.4585965377403533e-17      22.141382823422148      11.699999999999999
   967   1                       0      20.438199529312751      14.039999999999999
   968   1  5.4585965377403533e-17      22.141382823422148      16.379999999999999
   969   1                       0      20.438199529312751      18.719999999999999
   970   1  5.4585965377403533e-17      22.141382823422148      21.059999999999999
   971   1                       0      20.438199529312751      23.399999999999999
   972   1  5.4585965377403533e-17      22.141382823422148      25.739999999999998
   973   1                       0      20.438199529312751      28.079999999999998
   974   1  5.4585965377403533e-17      22.141382823422148      30.419999999999998
   975   1                       0      20.438199529312751      32.759999999999998
   976   1  5.4585965377403533e-17      22.141382823422148      35.099999999999994
   977   1                       0      20.438199529312751      37.439999999999998
   978   1  5.4585965377403533e-17      22.141382823422148      39.780000000000001
   979   1                       0      20.438199529312751      42.119999999999997
   980   1  5.4585965377403533e-17      22.141382823422148      44.459999999999994
   981   1     -1.4749999999999996      22.992974470476845                       0
   982   1     -1.4749999999999996      24.696157764586243      2.3399999999999999
   983   1     -1.4749999999999996      22.992974470476845      4.6799999999999997
   984   1     -1.4749999999999996      24.696157764586243      7.0199999999999996
   985   1     -1.4749999999999996      22.992974470476845      9.3599999999999994
   986   1     -1.4749999999999996      24.696157764586243      11.699999999999999
   987   1     -1.4749999999999996      22.992974470476845      14.039999999999999
   988   1     -1.4749999999999996      24.696157764586243      16.379999999999999
   989   1     -1.4749999999999996      22.992974470476845      18.719999999999999
   990   1     -1.4749999999999996      24.696157764586243      21.059999999999999
   991   1     -1.4749999999999996      22.992974470476845      23.399999999999999
   992   1     -1.4749999999999996      24.696157764586243      25.739999999999998
   993   1     -1.4749999999999996      22.992974470476845      28.079999999999998
   994   1     -1.4749999999999996      24.696157764586243      30.419999999999998
   995   1     -1.4749999999999996      22.992974470476845      32.759999999999998
   996   1     -1.4749999999999996      24.696157764586243      35.099999999999994
   997   1     -1.4749999999999996      22.992974470476845      37.439999999999998
   998   1     -1.4749999999999996      24.696157764586243      39.780000000000001
   999   1     -1.4749999999999996      22.992974470476845      42.119999999999997
  1000   1     -1.4749999999999996      24.696157764586243      44.459999999999994
  1001   1                   14.75                       0                       0
  1002   1                   14.75      1.7031832941093958      2.3399999999999999
  1003   1                   14.75                       0      4.6799999999999997
  1004   1                   14.75      1.7031832941093958      7.0199999999999996
  1005   1                   14.75                       0      9.3599999999999994
  1006   1                   14.75      1.7031832941093958      11.699999999999999
  1007   1                   14.75                       0      14.039999999999999
  1008   1                   14.75      1.7031832941093958      16.379999999999999
  1009   1                   14.75                       0      18.719999999999999
  1010   1                   14.75      1.7031832941093958      21.059999999999999
  1011   1                   14.75                       0      23.399999999999999
  1012   1                   14.75      1.7031832941093958      25.739999999999998
  1013   1                   14.75                       0      28.079999999999998
  1014   1                   14.75      1.7031832941093958      30.419999999999998
  1015   1                   14.75                       0      32.759999999999998
  1016   1                   14.75      1.7031832941093958      35.099999999999994
  1017   1                   14.75                       0      37.439999999999998
  1018   1                   14.75      1.7031832941093958      39.780000000000001
  1019   1                   14.75                       0      42.119999999999997
  1020   1                   14.75      1.7031832941093958      44.459999999999994
  1021   1                  13.275      2.5547749411640939                       0
  1022   1                  13.275      4.2579582352734899      2.3399999999999999
  1023   1                  13.275      2.5547749411640939      4.6799999999999997
  1024   1                  13.275      4.2579582352734899      7.0199999999999996
  1025   1                  13.275      2.5547749411640939      9.3599999999999994
  1026   1                  13.275      4.2579582352734899      11.699999999999999
  1027   1                  13.275      2.5547749411640939      14.039999999999999
  1028   1                  13.275      4.2579582352734899      16.379999999999999
  1029   1                  13.275      2.5547749411640939      18.719999999999999
  1030   1                  13.275      4.2579582352734899      21.059999999999999
  1031   1                  13.275      2.5547749411640939      23.399999999999999
  1032   1                  13.275      4.2579582352734899      25.739999999999998
  1033   1                  13.275      2.5547749411640939      28.079999999999998
  1034   1                  13.275      4.2579582352734899      30.419999999999998
  1035   1                  13.275      2.5547749411640939      32.759999999999998
  1036   1                  13.275      4.2579582352734899      35.099999999999994
  1037   1                  13.275      2.5547749411640939      37.439999999999998
  1038   1                  13.275      4.2579582352734899      39.780000000000001
  1039   1                  13.275      2.5547749411640939      42.119999999999997
  1040   1                  13.275      4.2579582352734899      44.459999999999994
  1041   1      11.800000000000001      5.1095498823281877                       0
  1042   1      11.800000000000001      6.8127331764375834      2.3399999999999999
  1043   1      11.800000000000001      5.1095498823281877      4.6799999999999997
  1044   1      11.800000000000001      6.8127331764375834      7.0199999999999996
  1045   1      11.800000000000001      5.1095498823281877      9.3599999999999994
  1046   1      11.800000000000001      6.8127331764375834      11.699999999999999
  1047   1      11.800000000000001      5.1095498823281877      14.039999999999999
  1048   1      11.800000000000001      6.8127331764375834      16.379999999999999
  1049   1      11.800000000000001      5.1095498823281877      18.719999999999999
  1050   1      11.800000000000001      6.8127331764375834      21.059999999999999
  1051   1      11.800000000000001      5.1095498823281877      23.399999999999999
  1052   1      11.800000000000001      6.8127331764375834      25.739999999999998
  1053   1      11.800000000000001      5.1095498823281877      28.079999999999998
  1054   1      11.800000000000001      6.8127331764375834      30.419999999999998
  1055   1      11.800000000000001      5.1095498823281877      32.759999999999998
  1056   1      11.800000000000001      6.8127331764375834      35.099999999999994
  1057   1      11.800000000000001      5.1095498823281877      37.439999999999998
  1058   1      11.800000000000001      6.8127331764375834      39.780000000000001
  1059   1      11.800000000000001      5.1095498823281877      42.119999999999997
  1060   1      11.800000000000001      6.8127331764375834      44.459999999999994
  1061   1      10.324999999999999      7.6643248234922812                       0
  1062   1      10.324999999999999      9.3675081176016768      2.3399999999999999
  1063   1      10.324999999999999      7.6643248234922812      4.6799999999999997
  1064   1      10.324999999999999      9.3675081176016768      7.0199999999999996
  1065   1      10.324999999999999      7.6643248234922812      9.3599999999999994
  1066   1      10.324999999999999      9.3675081176016768      11.699999999999999
  1067   1      10.324999999999999      7.6643248234922812      14.039999999999999
  1068   1      10.324999999999999      9.3675081176016768      16.379999999999999
  1069   1      10.324999999999999      7.6643248234922812      18.719999999999999
  1070   1      10.324999999999999      9.3675081176016768      21.059999999999999
  1071   1      10.324999999999999      7.6643248234922812      23.399999999999999
  1072   1      10.324999999999999      9.3675081176016768      25.739999999999998
  1073   1      10.324999999999999      7.6643248234922812      28.079999999999998
  1074   1      10.324999999999999      9.3675081176016768      30.419999999999998
  1075   1      10.324999999999999      7.6643248234922812      32.759999999999998
  1076   1      10.324999999999999      9.3675081176016768      35.099999999999994
  1077   1      10.324999999999999      7.6643248234922812      37.439999999999998
  1078   1      10.324999999999999      9.3675081176016768      39.780000000000001
  1079   1      10.324999999999999      7.6643248234922812      42.119999999999997
  1080   1      10.324999999999999      9.3675081176016768      44.459999999999994
  1081   1      8.8499999999999996      10.219099764656375                       0
  1082   1      8.8499999999999996      11.922283058765771      2.3399999999999999
  1083   1      8.8499999999999996      10.219099764656375      4.6799999999999997
  1084   1      8.8499999999999996      11.922283058765771      7.0199999999999996
  1085   1      8.8499999999999996      10.219099764656375      9.3599999999999994
  1086   1      8.8499999999999996      11.922283058765771      11.699999999999999
  1087   1      8.8499999999999996      10.219099764656375      14.039999999999999
  1088   1      8.8499999999999996      11.922283058765771      16.379999999999999
  1089   1      8.8499999999999996      10.219099764656375      18.719999999999999
  1090   1      8.8499999999999996      11.922283058765771      21.059999999999999
  1091   1      8.8499999999999996      10.219099764656375      23.399999999999999
  1092   1      8.8499999999999996      11.922283058765771      25.739999999999998
  1093   1      8.8499999999999996      10.219099764656375      28.079999999999998
  1094   1      8.8499999999999996      11.922283058765771      30.419999999999998
  1095   1      8.8499999999999996      10.219099764656375      32.759999999999998
  1096   1      8.8499999999999996      11.922283058765771      35.099999999999994
  1097   1      8.8499999999999996      10.219099764656375      37.439999999999998
  1098   1      8.8499999999999996      11.922283058765771      39.780000000000001
  1099   1      8.8499999999999996      10.219099764656375      42.119999999999997
  1100   1      8.8499999999999996      11.922283058765771      44.459999999999994
  1101   1                   7.375       12.77387470582047                       0
  1102   1                   7.375      14.477057999929865      2.3399999999999999
  1103   1                   7.375       12.77387470582047      4.6799999999999997
  1104   1                   7.375      14.477057999929865      7.0199999999999996
  1105   1                   7.375       12.77387470582047      9.3599999999999994
  1106   1                   7.375      14.477057999929865      11.699999999999999
  1107   1                   7.375       12.77387470582047      14.039999999999999
  1108   1                   7.375      14.477057999929865      16.379999999999999
  1109   1                   7.375       12.77387470582047      18.719999999999999
  1110   1                   7.375      14.477057999929865      21.059999999999999
  1111   1                   7.375       12.77387470582047      23.399999999999999
  1112   1                   7.375      14.477057999929865      25.739999999999998
  1113   1                   7.375       12.77387470582047      28.079999999999998
  1114   1                   7.375      14.477057999929865      30.419999999999998
  1115   1                   7.375       12.77387470582047      32.759999999999998
  1116   1                   7.375      14.477057999929865      35.099999999999994
  1117   1                   7.375       12.77387470582047      37.439999999999998
  1118   1                   7.375      14.477057999929865      39.780000000000001
  1119   1                   7.375       12.77387470582047      42.119999999999997
  1120   1                   7.375      14.477057999929865      44.459999999999994
  1121   1      5.8999999999999986      15.328649646984562                       0
  1122   1      5.8999999999999986       17.03183294109396      2.3399999999999999
  1123   1      5.8999999999999986      15.328649646984562      4.6799999999999997
  1124   1      5.8999999999999986       17.03183294109396      7.0199999999999996
  1125   1      5.8999999999999986      15.328649646984562      9.3599999999999994
  1126   1      5.8999999999999986       17.03183294109396      11.699999999999999
  1127   1      5.8999999999999986      15.328649646984562      14.039999999999999
  1128   1      5.8999999999999986       17.03183294109396      16.379999999999999
  1129   1      5.8999999999999986      15.328649646984562      18.719999999999999
  1130   1      5.8999999999999986       17.03183294109396      21.059999999999999
  1131   1      5.8999999999999986      15.328649646984562      23.399999999999999
  1132   1      5.8999999999999986       17.03183294109396      25.739999999999998
  1133   1      5.8999999999999986      15.328649646984562      28.079999999999998
  1134   1      5.8999999999999986       17.03183294109396      30.419999999999998
  1135   1      5.8999999999999986      15.328649646984562      32.759999999999998
  1136   1      5.8999999999999986       17.03183294109396      35.099999999999994
  1137   1      5.8999999999999986      15.328649646984562      37.439999999999998
  1138   1      5.8999999999999986       17.03183294109396      39.780000000000001
  1139   1      5.8999999999999986      15.328649646984562      42.119999999999997
  1140   1      5.8999999999999986       17.03183294109396      44.459999999999994
  1141   1      4.4249999999999989      17.883424588148657                       0
  1142   1      4.4249999999999989      19.586607882258054      2.3399999999999999
  1143   1      4.4249999999999989      17.883424588148657      4.6799999999999997
  1144   1      4.4249999999999989      19.586607882258054      7.0199999999999996
  1145   1      4.4249999999999989      17.883424588148657      9.3599999999999994
  1146   1      4.4249999999999989      19.586607882258054      11.699999999999999
  1147   1      4.4249999999999989      17.883424588148657      14.039999999999999
  1148   1      4.4249999999999989      19.586607882258054      16.379999999999999
  1149   1      4.4249999999999989      17.883424588148657      18.719999999999999
  1150   1      4.4249999999999989      19.586607882258054      21.059999999999999
  1151   1      4.4249999999999989      17.883424588148657      23.399999999999999
  1152   1      4.4249999999999989      19.586607882258054      25.739999999999998
  1153   1      4.4249999999999989      17.883424588148657      28.079999999999998
  1154   1      4.4249999999999989      19.586607882258054      30.419999999999998
  1155   1      4.4249999999999989      17.883424588148657      32.759999999999998
  1156   1      4.4249999999999989      19.586607882258054      35.099999999999994
  1157   1      4.4249999999999989      17.883424588148657      37.439999999999998
  1158   1      4.4249999999999989      19.586607882258054      39.780000000000001
  1159   1      4.4249999999999989      17.883424588148657      42.119999999999997
  1160   1      4.4249999999999989      19.586607882258054      44.459999999999994
  1161   1      2.9499999999999993      20.438199529312751                       0
  1162   1      2.9499999999999993      22.141382823422148      2.3399999999999999
  1163   1      2.9499999999999993      20.438199529312751      4.6799999999999997
  1164   1      2.9499999999999993      22.141382823422148      7.0199999999999996
  1165   1      2.9499999999999993      20.438199529312751      9.3599999999999994
  1166   1      2.9499999999999993      22.141382823422148      11.699999999999999
  1167   1      2.9499999999999993      20.438199529312751      14.039999999999999
  1168   1      2.9499999999999993      22.141382823422148      16.379999999999999
  1169   1      2.9499999999999993      20.438199529312751      18.719999999999999
  1170   1      2.9499999999999993      22.141382823422148      21.059999999999999
  1171   1      2.9499999999999993      20.438199529312751      23.399999999999999
  1172   1      2.9499999999999993      22.141382823422148      25.739999999999998
  1173   1      2.9499999999999993      20.438199529312751      28.079999999999998
  1174   1      2.9499999999999993      22.141382823422148      30.419999999999998
  1175   1      2.9499999999999993      20.438199529312751      32.759999999999998
  1176   1      2.9499999999999993      22.141382823422148      35.099999999999994
  1177   1      2.9499999999999993      20.438199529312751      37.439999999999998
  1178   1      2.9499999999999993      22.141382823422148      39.780000000000001
  1179   1      2.9499999999999993      20.438199529312751      42.119999999999997
  1180   1      2.9499999999999993      22.141382823422148      44.459999999999994
  1181   1      1.4749999999999996      22.992974470476845                       0
  1182   1      1.4749999999999996      24.696157764586243      2.3399999999999999
  1183   1      1.4749999999999996      22.992974470476845      4.6799999999999997
  1184   1      1.4749999999999996      24.696157764586243      7.0199999999999996
  1185   1      1.4749999999999996      22.992974470476845      9.3599999999999994
  1186   1      1.4749999999999996      24.696157764586243      11.699999999999999
  1187   1      1.4749999999999996      22.992974470476845      14.039999999999999
  1188   1      1.4749999999999996      24.696157764586243      16.379999999999999
  1189   1      1.4749999999999996      22.992974470476845      18.719999999999999
  1190   1      1.4749999999999996      24.696157764586243      21.059999999999999
  1191   1      1.4749999999999996      22.992974470476845      23.399999999999999
  1192   1      1.4749999999999996      24.696157764586243      25.739999999999998
  1193   1      1.4749999999999996      22.992974470476845      28.079999999999998
  1194   1      1.4749999999999996      24.696157764586243      30.419999999999998
  1195   1      1.4749999999999996      22.992974470476845      32.759999999999998
  1196   1      1.4749999999999996      24.696157764586243      35.099999999999994
  1197   1      1.4749999999999996      22.992974470476845      37.439999999999998
  1198   1      1.4749999999999996      24.696157764586243      39.780000000000001
  1199   1      1.4749999999999996      22.992974470476845      42.119999999999997
  1200   1      1.4749999999999996      24.696157764586243      44.459999999999994
  1201   1      17.700000000000003                       0                       0
  1202   1      17.700000000000003      1.7031832941093958      2.3399999999999999
  1203   1      17.700000000000003                       0      4.6799999999999997
  1204   1      17.700000000000003      1.7031832941093958      7.0199999999999996
  1205   1      17.700000000000003                       0      9.3599999999999994
  1206   1      17.700000000000003      1.7031832941093958      11.699999999999999
  1207   1      17.700000000000003                       0      14.039999999999999
  1208   1      17.700000000000003      1.7031832941093958      16.379999999999999
  1209   1      17.700000000000003                       0      18.719999999999999
  1210   1      17.700000000000003      1.7031832941093958      21.059999999999999
  1211   1      17.700000000000003                       0      23.399999999999999
  1212   1      17.700000000000003      1.7031832941093958      25.739999999999998
  1213   1      17.700000000000003                       0      28.079999999999998
  1214   1      17.700000000000003      1.7031832941093958      30.419999999999998
  1215   1      17.700000000000003                       0      32.759999999999998
  1216   1      17.700000000000003      1.7031832941093958      35.099999999999994
  1217   1      17.700000000000003                       0      37.439999999999998
  1218   1      17.700000000000003      1.7031832941093958      39.780000000000001
  1219   1      17.700000000000003                       0      42.119999999999997
  1220   1      17.700000000000003      1.7031832941093958      44.459999999999994
  1221   1      16.225000000000001      2.5547749411640939                       0
  1222   1      16.225000000000001      4.2579582352734899      2.3399999999999999
  1223   1      16.225000000000001      2.5547749411640939      4.6799999999999997
  1224   1      16.225000000000001      4.2579582352734899      7.0199999999999996
  1225   1      16.225000000000001      2.5547749411640939      9.3599999999999994
  1226   1      16.225000000000001      4.2579582352734899      11.699999999999999
  1227   1      16.225000000000001      2.5547749411640939      14.039999999999999
  1228   1      16.225000000000001      4.2579582352734899      16.379999999999999
  1229   1      16.225000000000001      2.5547749411640939      18.719999999999999
  1230   1      16.225000000000001      4.2579582352734899      21.059999999999999
  1231   1      16.225000000000001      2.5547749411640939      23.399999999999999
  1232   1      16.225000000000001      4.2579582352734899      25.739999999999998
  1233   1      16.225000000000001      2.5547749411640939      28.079999999999998
  1234   1      16.225000000000001      4.2579582352734899      30.419999999999998
  1235   1      16.225000000000001      2.5547749411640939      32.759999999999998
  1236   1      16.225000000000001      4.2579582352734899      35.099999999999994
  1237   1      16.225000000000001      2.5547749411640939      37.439999999999998
  1238   1      16.225000000000001      4.2579582352734899      39.780000000000001
  1239   1      16.225000000000001      2.5547749411640939      42.119999999999997
  1240   1      16.225000000000001      4.2579582352734899      44.459999999999994
  1241   1      14.750000000000004      5.1095498823281877                       0
  1242   1      14.750000000000004      6.8127331764375834      2.3399999999999999
  1243   1      14.750000000000004      5.1095498823281877      4.6799999999999997
  1244   1      14.750000000000004      6.8127331764375834      7.0199999999999996
  1245   1      14.750000000000004      5.1095498823281877      9.3599999999999994
  1246   1      14.750000000000004      6.8127331764375834      11.699999999999999
  1247   1      14.750000000000004      5.1095498823281877      14.039999999999999
  1248   1      14.750000000000004      6.8127331764375834      16.379999999999999
  1249   1      14.750000000000004      5.1095498823281877      18.719999999999999
  1250   1      14.750000000000004      6.8127331764375834      21.059999999999999
  1251   1      14.750000000000004      5.1095498823281877      23.399999999999999
  1252   1      14.750000000000004      6.8127331764375834      25.739999999999998
  1253   1      14.750000000000004      5.1095498823281877      28.079999999999998
  1254   1      14.750000000000004      6.8127331764375834      30.419999999999998
  1255   1      14.750000000000004      5.1095498823281877      32.759999999999998
  1256   1      14.750000000000004      6.8127331764375834      35.099999999999994
  1257   1      14.750000000000004      5.1095498823281877      37.439999999999998
  1258   1      14.750000000000004      6.8127331764375834      39.780000000000001
  1259   1      14.750000000000004      5.1095498823281877      42.119999999999997
  1260   1      14.750000000000004      6.8127331764375834      44.459999999999994
  1261   1      13.275000000000002      7.6643248234922812                       0
  1262   1      13.275000000000002      9.3675081176016768      2.3399999999999999
  1263   1      13.275000000000002      7.6643248234922812      4.6799999999999997
  1264   1      13.275000000000002      9.3675081176016768      7.0199999999999996
  1265   1      13.275000000000002      7.6643248234922812      9.3599999999999994
  1266   1      13.275000000000002      9.3675081176016768      11.699999999999999
  1267   1      13.275000000000002      7.6643248234922812      14.039999999999999
  1268   1      13.275000000000002      9.3675081176016768      16.379999999999999
  1269   1      13.275000000000002      7.6643248234922812      18.719999999999999
  1270   1      13.275000000000002      9.3675081176016768      21.059999999999999
  1271   1      13.275000000000002      7.6643248234922812      23.399999999999999
  1272   1      13.275000000000002      9.3675081176016768      25.739999999999998
  1273   1      13.275000000000002      7.6643248234922812      28.079999999999998
  1274   1      13.275000000000002      9.3675081176016768      30.419999999999998
  1275   1      13.275000000000002      7.6643248234922812      32.759999999999998
  1276   1      13.275000000000002      9.3675081176016768      35.099999999999994
  1277   1      13.275000000000002      7.6643248234922812      37.439999999999998
  1278   1      13.275000000000002      9.3675081176016768      39.780000000000001
  1279   1      13.275000000000002      7.6643248234922812      42.119999999999997
  1280   1      13.275000000000002      9.3675081176016768      44.459999999999994
  1281   1      11.800000000000002      10.219099764656375                       0
  1282   1      11.800000000000002      11.922283058765771      2.3399999999999999
  1283   1      11.800000000000002      10.219099764656375      4.6799999999999997
  1284   1      11.800000000000002      11.922283058765771      7.0199999999999996
  1285   1      11.800000000000002      10.219099764656375      9.3599999999999994
  1286   1      11.800000000000002      11.922283058765771      11.699999999999999
  1287   1      11.800000000000002      10.219099764656375      14.039999999999999
  1288   1      11.800000000000002      11.922283058765771      16.379999999999999
  1289   1      11.800000000000002      10.219099764656375      18.719999999999999
  1290   1      11.800000000000002      11.922283058765771      21.059999999999999
  1291   1      11.800000000000002      10.219099764656375      23.399999999999999
  1292   1      11.800000000000002      11.922283058765771      25.739999999999998
  1293   1      11.800000000000002      10.219099764656375      28.079999999999998
  1294   1      11.800000000000002      11.922283058765771      30.419999999999998
  1295   1      11.800000000000002      10.219099764656375      32.759999999999998
  1296   1      11.800000000000002      11.922283058765771      35.099999999999994
  1297   1      11.800000000000002      10.219099764656375      37.439999999999998
  1298   1      11.800000000000002      11.922283058765771      39.780000000000001
  1299   1      11.800000000000002      10.219099764656375      42.119999999999997
  1300   1      11.800000000000002      11.922283058765771      44.459999999999994
  1301   1      10.325000000000003       12.77387470582047                       0
  1302   1      10.325000000000003      14.477057999929865      2.3399999999999999
  1303   1      10.325000000000003       12.77387470582047      4.6799999999999997
  1304   1      10.325000000000003      14.477057999929865      7.0199999999999996
  1305   1      10.325000000000003       12.77387470582047      9.3599999999999994
  1306   1      10.325000000000003      14.477057999929865      11.699999999999999
  1307   1      10.325000000000003       12.77387470582047      14.039999999999999
  1308   1      10.325000000000003      14.477057999929865      16.379999999999999
  1309   1      10.325000000000003       12.77387470582047      18.719999999999999
  1310   1      10.325000000000003      14.477057999929865      21.059999999999999
  1311   1      10.325000000000003       12.77387470582047      23.399999999999999
  1312   1      10.325000000000003      14.477057999929865      25.739999999999998
  1313   1      10.325000000000003       12.77387470582047      28.079999999999998
  1314   1      10.325000000000003      14.477057999929865      30.419999999999998
  1315   1      10.325000000000003       12.77387470582047      32.759999999999998
  1316   1      10.325000000000003      14.477057999929865      35.099999999999994
  1317   1      10.325000000000003       12.77387470582047      37.439999999999998
  1318   1      10.325000000000003      14.477057999929865      39.780000000000001
  1319   1      10.325000000000003       12.77387470582047      42.119999999999997
  1320   1      10.325000000000003      14.477057999929865      44.459999999999994
  1321   1      8.8500000000000014      15.328649646984562                       0
  1322   1      8.8500000000000014       17.03183294109396      2.3399999999999999
  1323   1      8.8500000000000014      15.328649646984562      4.6799999999999997
  1324   1      8.8500000000000014       17.03183294109396      7.0199999999999996
  1325   1      8.8500000000000014      15.328649646984562      9.3599999999999994
  1326   1      8.8500000000000014       17.03183294109396      11.699999999999999
  1327   1      8.8500000000000014      15.328649646984562      14.039999999999999
  1328   1      8.8500000000000014       17.03183294109396      16.379999999999999
  1329   1      8.8500000000000014      15.328649646984562      18.719999999999999
  1330   1      8.8500000000000014       17.03183294109396      21.059999999999999
  1331   1      8.8500000000000014      15.328649646984562      23.399999999999999
  1332   1      8.8500000000000014       17.03183294109396      25.739999999999998
  1333   1      8.8500000000000014      15.328649646984562      28.079999999999998
  1334   1      8.8500000000000014       17.03183294109396      30.419999999999998
  1335   1      8.8500000000000014      15.328649646984562      32.759999999999998
  1336   1      8.8500000000000014       17.03183294109396      35.099999999999994
  1337   1      8.8500000000000014      15.328649646984562      37.439999999999998
  1338   1      8.8500000000000014       17.03183294109396      39.780000000000001
  1339   1      8.8500000000000014      15.328649646984562      42.119999999999997
  1340   1      8.8500000000000014       17.03183294109396      44.459999999999994
  1341   1      7.3750000000000018      17.883424588148657                       0
  1342   1      7.3750000000000018      19.586607882258054      2.3399999999999999
  1343   1      7.3750000000000018      17.883424588148657      4.6799999999999997
  1344   1      7.3750000000000018      19.586607882258054      7.0199999999999996
  1345   1      7.3750000000000018      17.883424588148657      9.3599999999999994
  1346   1      7.3750000000000018      19.586607882258054      11.699999999999999
  1347   1      7.3750000000000018      17.883424588148657      14.039999999999999
  1348   1      7.3750000000000018      19.586607882258054      16.379999999999999
  1349   1      7.3750000000000018      17.883424588148657      18.719999999999999
  1350   1      7.3750000000000018      19.586607882258054      21.059999999999999
  1351   1      7.3750000000000018      17.883424588148657      23.399999999999999
  1352   1      7.3750000000000018      19.586607882258054      25.739999999999998
  1353   1      7.3750000000000018      17.883424588148657      28.079999999999998
  1354   1      7.3750000000000018      19.586607882258054      30.419999999999998
  1355   1      7.3750000000000018      17.883424588148657      32.759999999999998
  1356   1      7.3750000000000018      19.586607882258054      35.099999999999994
  1357   1      7.3750000000000018      17.883424588148657      37.439999999999998
  1358   1      7.3750000000000018      19.586607882258054      39.780000000000001
  1359   1      7.3750000000000018      17.883424588148657      42.119999999999997
  1360   1      7.3750000000000018      19.586607882258054      44.459999999999994
  1361   1      5.9000000000000021      20.438199529312751                       0
  1362   1      5.9000000000000021      22.141382823422148      2.3399999999999999
  1363   1      5.9000000000000021      20.438199529312751      4.6799999999999997
  1364   1      5.9000000000000021      22.141382823422148      7.0199999999999996
  1365   1      5.9000000000000021      20.438199529312751      9.3599999999999994
  1366   1      5.9000000000000021      22.141382823422148      11.699999999999999
  1367   1      5.9000000000000021      20.438199529312751      14.039999999999999
  1368   1      5.9000000000000021      22.141382823422148      16.379999999999999
  1369   1      5.9000000000000021      20.438199529312751      18.719999999999999
  1370   1      5.9000000000000021      22.141382823422148      21.059999999999999
  1371   1      5.9000000000000021      20.438199529312751      23.399999999999999
  1372   1      5.9000000000000021      22.141382823422148      25.739999999999998
  1373   1      5.9000000000000021      20.438199529312751      28.079999999999998
  1374   1      5.9000000000000021      22.141382823422148      30.419999999999998
  1375   1      5.9000000000000021      20.438199529312751      32.759999999999998
  1376   1      5.9000000000000021      22.141382823422148      35.099999999999994
  1377   1      5.9000000000000021      20.438199529312751      37.439999999999998
  1378   1      5.9000000000000021      22.141382823422148      39.780000000000001
  1379   1      5.9000000000000021      20.438199529312751      42.119999999999997
  1380   1      5.9000000000000021      22.141382823422148      44.459999999999994
  1381   1      4.4250000000000025      22.992974470476845                       0
  1382   1      4.4250000000000025      24.696157764586243      2.3399999999999999
  1383   1      4.4250000000000025      22.992974470476845      4.6799999999999997
  1384   1      4.4250000000000025      24.696157764586243      7.0199999999999996
  1385   1      4.4250000000000025      22.992974470476845      9.3599999999999994
  1386   1      4.4250000000000025      24.696157764586243      11.699999999999999
  1387   1      4.4250000000000025      22.992974470476845      14.039999999999999
  1388   1      4.4250000000000025      24.696157764586243      16.379999999999999
  1389   1      4.4250000000000025      22.992974470476845      18.719999999999999
  1390   1      4.4250000000000025      24.696157764586243      21.059999999999999
  1391   1      4.4250000000000025      22.992974470476845      23.399999999999999
  1392   1      4.4250000000000025      24.696157764586243      25.739999999999998
  1393   1      4.4250000000000025      22.992974470476845      28.079999999999998
  1394   1      4.4250000000000025      24.696157764586243      30.419999999999998
  1395   1      4.4250000000000025      22.992974470476845      32.759999999999998
  1396   1      4.4250000000000025      24.696157764586243      35.099999999999994
  1397   1      4.4250000000000025      22.992974470476845      37.439999999999998
  1398   1      4.4250000000000025      24.696157764586243      39.780000000000001
  1399   1      4.4250000000000025      22.992974470476845      42.119999999999997
  1400   1      4.4250000000000025      24.696157764586243      44.459999999999994
  1401   1      20.650000000000002                       0                       0
  1402   1      20.650000000000002      1.7031832941093958      2.3399999999999999
  1403   1      20.650000000000002                       0      4.6799999999999997
  1404   1      20.650000000000002      1.7031832941093958      7.0199999999999996
  1405   1      20.650000000000002                       0      9.3599999999999994
  1406   1      20.650000000000002      1.7031832941093958      11.699999999999999
  1407   1      20.650000000000002                       0      14.039999999999999
  1408   1      20.650000000000002      1.7031832941093958      16.379999999999999
  1409   1      20.650000000000002                       0      18.719999999999999
  1410   1      20.650000000000002      1.7031832941093958      21.059999999999999
  1411   1      20.650000000000002                       0      23.399999999999999
  1412   1      20.650000000000002      1.7031832941093958      25.739999999999998
  1413   1      20.650000000000002                       0      28.079999999999998
  1414   1      20.650000000000002      1.7031832941093958      30.419999999999998
  1415   1      20.650000000000002                       0      32.759999999999998
  1416   1      20.650000000000002      1.7031832941093958      35.099999999999994
  1417   1      20.650000000000002                       0      37.439999999999998
  1418   1      20.650000000000002      1.7031832941093958      39.780000000000001
  1419   1      20.650000000000002                       0      42.119999999999997
  1420   1      20.650000000000002      1.7031832941093958      44.459999999999994
  1421   1      19.175000000000001      2.5547749411640939                       0
  1422   1      19.175000000000001      4.2579582352734899      2.3399999999999999
  1423   1      19.175000000000001      2.5547749411640939      4.6799999999999997
  1424   1      19.175000000000001      4.2579582352734899      7.0199999999999996
  1425   1      19.175000000000001      2.5547749411640939      9.3599999999999994
  1426   1      19.175000000000001      4.2579582352734899      11.699999999999999
  1427   1      19.175000000000001      2.5547749411640939      14.039999999999999
  1428   1      19.175000000000001      4.2579582352734899      16.379999999999999
  1429   1      19.175000000000001      2.5547749411640939      18.719999999999999
  1430   1      19.175000000000001      4.2579582352734899      21.059999999999999
  1431   1      19.175000000000001      2.5547749411640939      23.399999999999999
  1432   1      19.175000000000001      4.2579582352734899      25.739999999999998
  1433   1      19.175000000000001      2.5547749411640939      28.079999999999998
  1434   1      19.175000000000001      4.2579582352734899      30.419999999999998
  1435   1      19.175000000000001      2.5547749411640939      32.759999999999998
  1436   1      19.175000000000001      4.2579582352734899      35.099999999999994
  1437   1      19.175000000000001      2.5547749411640939      37.439999999999998
  1438   1      19.175000000000001      4.2579582352734899      39.780000000000001
  1439   1      19.175000000000001      2.5547749411640939      42.119999999999997
  1440   1      19.175000000000001      4.2579582352734899      44.459999999999994
  1441   1      17.700000000000003      5.1095498823281877                       0
  1442   1      17.700000000000003      6.8127331764375834      2.3399999999999999
  1443   1      17.700000000000003      5.1095498823281877      4.6799999999999997
  1444   1      17.700000000000003      6.8127331764375834      7.0199999999999996
  1445   1      17.700000000000003      5.1095498823281877      9.3599999999999994
  1446   1      17.700000000000003      6.8127331764375834      11.699999999999999
  1447   1      17.700000000000003      5.1095498823281877      14.039999999999999
  1448   1      17.700000000000003      6.8127331764375834      16.379999999999999
  1449   1      17.700000000000003      5.1095498823281877      18.719999999999999
  1450   1      17.700000000000003      6.8127331764375834      21.059999999999999
  1451   1      17.700000000000003      5.1095498823281877      23.399999999999999
  1452   1      17.700000000000003      6.8127331764375834      25.739999999999998
  1453   1      17.700000000000003      5.1095498823281877      28.079999999999998
  1454   1      17.700000000000003      6.8127331764375834      30.419999999999998
  1455   1      17.700000000000003      5.1095498823281877      32.759999999999998
  1456   1      17.700000000000003      6.8127331764375834      35.099999999999994
  1457   1      17.700000000000003      5.1095498823281877      37.439999999999998
  1458   1      17.700000000000003      6.8127331764375834      39.780000000000001
  1459   1      17.700000000000003      5.1095498823281877      42.119999999999997
  1460   1      17.700000000000003      6.8127331764375834      44.459999999999994
  1461   1      16.225000000000001      7.6643248234922812                       0
  1462   1      16.225000000000001      9.3675081176016768      2.3399999999999999
  1463   1      16.225000000000001      7.6643248234922812      4.6799999999999997
  1464   1      16.225000000000001      9.3675081176016768      7.0199999999999996
  1465   1      16.225000000000001      7.6643248234922812      9.3599999999999994
  1466   1      16.225000000000001      9.3675081176016768      11.699999999999999
  1467   1      16.225000000000001      7.6643248234922812      14.039999999999999
  1468   1      16.225000000000001      9.3675081176016768      16.379999999999999
  1469   1      16.225000000000001      7.6643248234922812      18.719999999999999
  1470   1      16.225000000000001      9.3675081176016768      21.059999999999999
  1471   1      16.225000000000001      7.6643248234922812      23.399999999999999
  1472   1      16.225000000000001      9.3675081176016768      25.739999999999998
  1473   1      16.225000000000001      7.6643248234922812      28.079999999999998
  1474   1      16.225000000000001      9.3675081176016768      30.419999999999998
  1475   1      16.225000000000001      7.6643248234922812      32.759999999999998
  1476   1      16.225000000000001      9.3675081176016768      35.099999999999994
  1477   1      16.225000000000001      7.6643248234922812      37.439999999999998
  1478   1      16.225000000000001      9.3675081176016768      39.780000000000001
  1479   1      16.225000000000001      7.6643248234922812      42.119999999999997
  1480   1      16.225000000000001      9.3675081176016768      44.459999999999994
  1481   1      14.750000000000002      10.219099764656375                       0
  1482   1      14.750000000000002      11.922283058765771      2.3399999999999999
  1483   1      14.750000000000002      10.219099764656375      4.6799999999999997
  1484   1      14.750000000000002      11.922283058765771      7.0199999999999996
  1485   1      14.750000000000002      10.219099764656375      9.3599999999999994
  1486   1      14.750000000000002      11.922283058765771      11.699999999999999
  1487   1      14.750000000000002      10.219099764656375      14.039999999999999
  1488   1      14.750000000000002      11.922283058765771      16.379999999999999
  1489   1      14.750000000000002      10.219099764656375      18.719999999999999
  1490   1      14.750000000000002      11.922283058765771      21.059999999999999
  1491   1      14.750000000000002      10.219099764656375      23.399999999999999
  1492   1      14.750000000000002      11.922283058765771      25.739999999999998
  1493   1      14.750000000000002      10.219099764656375      28.079999999999998
  1494   1      14.750000000000002      11.922283058765771      30.419999999999998
  1495   1      14.750000000000002      10.219099764656375      32.759999999999998
  1496   1      14.750000000000002      11.922283058765771      35.099999999999994
  1497   1      14.750000000000002      10.219099764656375      37.439999999999998
  1498   1      14.750000000000002      11.922283058765771      39.780000000000001
  1499   1      14.750000000000002      10.219099764656375      42.119999999999997
  1500   1      14.750000000000002      11.922283058765771      44.459999999999994
  1501   1      13.275000000000002       12.77387470582047                       0
  1502   1      13.275000000000002      14.477057999929865      2.3399999999999999
  1503   1      13.275000000000002       12.77387470582047      4.6799999999999997
  1504   1      13.275000000000002      14.477057999929865      7.0199999999999996
  1505   1      13.275000000000002       12.77387470582047      9.3599999999999994
  1506   1      13.275000000000002      14.477057999929865      11.699999999999999
  1507   1      13.275000000000002       12.77387470582047      14.039999999999999
  1508   1      13.275000000000002      14.477057999929865      16.379999999999999
  1509   1      13.275000000000002       12.77387470582047      18.719999999999999
  1510   1      13.275000000000002      14.477057999929865      21.059999999999999
  1511   1      13.275000000000002       12.77387470582047      23.399999999999999
  1512   1      13.275000000000002      14.477057999929865      25.739999999999998
  1513   1      13.275000000000002       12.77387470582047      28.079999999999998
  1514   1      13.275000000000002      14.477057999929865      30.419999999999998
  1515   1      13.275000000000002       12.77387470582047      32.759999999999998
  1516   1      13.275000000000002      14.477057999929865      35.099999999999994
  1517   1      13.275000000000002       12.77387470582047      37.439999999999998
  1518   1      13.275000000000002      14.477057999929865      39.780000000000001
  1519   1      13.275000000000002       12.77387470582047      42.119999999999997
  1520   1      13.275000000000002      14.477057999929865      44.459999999999994
  1521   1      11.800000000000001      15.328649646984562                       0
  1522   1      11.800000000000001       17.03183294109396      2.3399999999999999
  1523   1      11.800000000000001      15.328649646984562      4.6799999999999997
  1524   1      11.800000000000001       17.03183294109396      7.0199999999999996
  1525   1      11.800000000000001      15.328649646984562      9.3599999999999994
  1526   1      11.800000000000001       17.03183294109396      11.699999999999999
  1527   1      11.800000000000001      15.328649646984562      14.039999999999999
  1528   1      11.800000000000001       17.03183294109396      16.379999999999999
  1529   1      11.800000000000001      15.328649646984562      18.719999999999999
  1530   1      11.800000000000001       17.03183294109396      21.059999999999999
  1531   1      11.800000000000001      15.328649646984562      23.399999999999999
  1532   1      11.800000000000001       17.03183294109396      25.739999999999998
  1533   1      11.800000000000001      15.328649646984562      28.079999999999998
  1534   1      11.800000000000001       17.03183294109396      30.419999999999998
  1535   1      11.800000000000001      15.328649646984562      32.759999999999998
  1536   1      11.800000000000001       17.03183294109396      35.099999999999994
  1537   1      11.800000000000001      15.328649646984562      37.439999999999998
  1538   1      11.800000000000001       17.03183294109396      39.780000000000001
  1539   1      11.800000000000001      15.328649646984562      42.119999999999997
  1540   1      11.800000000000001       17.03183294109396      44.459999999999994
  1541   1      10.325000000000001      17.883424588148657                       0
  1542   1      10.325000000000001      19.586607882258054      2.3399999999999999
  1543   1      10.325000000000001      17.883424588148657      4.6799999999999997
  1544   1      10.325000000000001      19.586607882258054      7.0199999999999996
  1545   1      10.325000000000001      17.883424588148657      9.3599999999999994
  1546   1      10.325000000000001      19.586607882258054      11.699999999999999
  1547   1      10.325000000000001      17.883424588148657      14.039999999999999
  1548   1      10.325000000000001      19.586607882258054      16.379999999999999
  1549   1      10.325000000000001      17.883424588148657      18.719999999999999
  1550   1      10.325000000000001      19.586607882258054      21.059999999999999
  1551   1      10.325000000000001      17.883424588148657      23.399999999999999
  1552   1      10.325000000000001      19.586607882258054      25.739999999999998
  1553   1      10.325000000000001      17.883424588148657      28.079999999999998
  1554   1      10.325000000000001      19.586607882258054      30.419999999999998
  1555   1      10.325000000000001      17.883424588148657      32.759999999999998
  1556   1      10.325000000000001      19.586607882258054      35.099999999999994
  1557   1      10.325000000000001      17.883424588148657      37.439999999999998
  1558   1      10.325000000000001      19.586607882258054      39.780000000000001
  1559   1      10.325000000000001      17.883424588148657      42.119999999999997
  1560   1      10.325000000000001      19.586607882258054      44.459999999999994
  1561   1      8.8500000000000014      20.438199529312751                       0
  1562   1      8.8500000000000014      22.141382823422148      2.3399999999999999
  1563   1      8.8500000000000014      20.438199529312751      4.6799999999999997
  1564   1      8.8500000000000014      22.141382823422148      7.0199999999999996
  1565   1      8.8500000000000014      20.438199529312751      9.3599999999999994
  1566   1      8.8500000000000014      22.141382823422148      11.699999999999999
  1567   1      8.8500000000000014      20.438199529312751      14.039999999999999
  1568   1      8.8500000000000014      22.141382823422148      16.379999999999999
  1569   1      8.8500000000000014      20.438199529312751      18.719999999999999
  1570   1      8.8500000000000014      22.141382823422148      21.059999999999999
  1571   1      8.8500000000000014      20.438199529312751      23.399999999999999
  1572   1      8.8500000000000014      22.141382823422148      25.739999999999998
  1573   1      8.8500000000000014      20.438199529312751      28.079999999999998
  1574   1      8.8500000000000014      22.141382823422148      30.419999999999998
  1575   1      8.8500000000000014      20.438199529312751      32.759999999999998
  1576   1      8.8500000000000014      22.141382823422148      35.099999999999994
  1577   1      8.8500000000000014      20.438199529312751      37.439999999999998
  1578   1      8.8500000000000014      22.141382823422148      39.780000000000001
  1579   1      8.8500000000000014      20.438199529312751      42.119999999999997
  1580   1      8.8500000000000014      22.141382823422148      44.459999999999994
  1581   1      7.3750000000000018      22.992974470476845                       0
  1582   1      7.3750000000000018      24.696157764586243      2.3399999999999999
  1583   1      7.3750000000000018      22.992974470476845      4.6799999999999997
  1584   1      7.3750000000000018      24.696157764586243      7.0199999999999996
  1585   1      7.3750000000000018      22.992974470476845      9.3599999999999994
  1586   1      7.3750000000000018      24.696157764586243      11.699999999999999
  1587   1      7.3750000000000018      22.992974470476845      14.039999999999999
  1588   1      7.3750000000000018      24.696157764586243      16.379999999999999
  1589   1      7.3750000000000018      22.992974470476845      18.719999999999999
  1590   1      7.3750000000000018      24.696157764586243      21.059999999999999
  1591   1      7.3750000000000018      22.992974470476845      23.399999999999999
  1592   1      7.3750000000000018      24.696157764586243      25.739999999999998
  1593   1      7.3750000000000018      22.992974470476845      28.079999999999998
  1594   1      7.3750000000000018      24.696157764586243      30.419999999999998
  1595   1      7.3750000000000018      22.992974470476845      32.759999999999998
  1596   1      7.3750000000000018      24.696157764586243      35.099999999999994
  1597   1      7.3750000000000018      22.992974470476845      37.439999999999998
  1598   1      7.3750000000000018      24.696157764586243      39.780000000000001
  1599   1      7.3750000000000018      22.992974470476845      42.119999999999997
  1600   1      7.3750000000000018      24.696157764586243      44.459999999999994
  1601   1      23.600000000000001                       0                       0
  1602   1      23.600000000000001      1.7031832941093958      2.3399999999999999
  1603   1      23.600000000000001                       0      4.6799999999999997
  1604   1      23.600000000000001      1.7031832941093958      7.0199999999999996
  1605   1      23.600000000000001                       0      9.3599999999999994
  1606   1      23.600000000000001      1.7031832941093958      11.699999999999999
  1607   1      23.600000000000001                       0      14.039999999999999
  1608   1      23.600000000000001      1.7031832941093958      16.379999999999999
  1609   1      23.600000000000001                       0      18.719999999999999
  1610   1      23.600000000000001      1.7031832941093958      21.059999999999999
  1611   1      23.600000000000001                       0      23.399999999999999
  1612   1      23.600000000000001      1.7031832941093958      25.739999999999998
  1613   1      23.600000000000001                       0      28.079999999999998
  1614   1      23.600000000000001      1.7031832941093958      30.419999999999998
  1615   1      23.600000000000001                       0      32.759999999999998
  1616   1      23.600000000000001      1.7031832941093958      35.099999999999994
  1617   1      23.600000000000001                       0      37.439999999999998
  1618   1      23.600000000000001      1.7031832941093958      39.780000000000001
  1619   1      23.600000000000001                       0      42.119999999999997
  1620   1      23.600000000000001      1.7031832941093958      44.459999999999994
  1621   1                  22.125      2.5547749411640939                       0
  1622   1                  22.125      4.2579582352734899      2.3399999999999999
  1623   1                  22.125      2.5547749411640939      4.6799999999999997
  1624   1                  22.125      4.2579582352734899      7.0199999999999996
  1625   1                  22.125      2.5547749411640939      9.3599999999999994
  1626   1                  22.125      4.2579582352734899      11.699999999999999
  1627   1                  22.125      2.5547749411640939      14.039999999999999
  1628   1                  22.125      4.2579582352734899      16.379999999999999
  1629   1                  22.125      2.5547749411640939      18.719999999999999
  1630   1                  22.125      4.2579582352734899      21.059999999999999
  1631   1                  22.125      2.5547749411640939      23.399999999999999
  1632   1                  22.125      4.2579582352734899      25.739999999999998
  1633   1                  22.125      2.5547749411640939      28.079999999999998
  1634   1                  22.125      4.2579582352734899      30.419999999999998
  1635   1                  22.125      2.5547749411640939      32.759999999999998
  1636   1                  22.125      4.2579582352734899      35.099999999999994
  1637   1                  22.125      2.5547749411640939      37.439999999999998
  1638   1                  22.125      4.2579582352734899      39.780000000000001
  1639   1                  22.125      2.5547749411640939      42.119999999999997
  1640   1                  22.125      4.2579582352734899      44.459999999999994
  1641   1      20.650000000000002      5.1095498823281877                       0
  1642   1      20.650000000000002      6.8127331764375834      2.3399999999999999
  1643   1      20.650000000000002      5.1095498823281877      4.6799999999999997
  1644   1      20.650000000000002      6.8127331764375834      7.0199999999999996
  1645   1      20.650000000000002      5.1095498823281877      9.3599999999999994
  1646   1      20.650000000000002      6.8127331764375834      11.699999999999999
  1647   1      20.650000000000002      5.1095498823281877      14.039999999999999
  1648   1      20.650000000000002      6.8127331764375834      16.379999999999999
  1649   1      20.650000000000002      5.1095498823281877      18.719999999999999
  1650   1      20.650000000000002      6.8127331764375834      21.059999999999999
  1651   1      20.650000000000002      5.1095498823281877      23.399999999999999
  1652   1      20.650000000000002      6.8127331764375834      25.739999999999998
  1653   1      20.650000000000002      5.1095498823281877      28.079999999999998
  1654   1      20.650000000000002      6.8127331764375834      30.419999999999998
  1655   1      20.650000000000002      5.1095498823281877      32.759999999999998
  1656   1      20.650000000000002      6.8127331764375834      35.099999999999994
  1657   1      20.650000000000002      5.1095498823281877      37.439999999999998
  1658   1      20.650000000000002      6.8127331764375834      39.780000000000001
  1659   1      20.650000000000002      5.1095498823281877      42.119999999999997
  1660   1      20.650000000000002      6.8127331764375834      44.459999999999994
  1661   1      19.175000000000001      7.6643248234922812                       0
  1662   1      19.175000000000001      9.3675081176016768      2.3399999999999999
  1663   1      19.175000000000001      7.6643248234922812      4.6799999999999997
  1664   1      19.175000000000001      9.3675081176016768      7.0199999999999996
  1665   1      19.175000000000001      7.6643248234922812      9.3599999999999994
  1666   1      19.175000000000001      9.3675081176016768      11.699999999999999
  1667   1      19.175000000000001      7.6643248234922812      14.039999999999999
  1668   1      19.175000000000001      9.3675081176016768      16.379999999999999
  1669   1      19.175000000000001      7.6643248234922812      18.719999999999999
  1670   1      19.175000000000001      9.3675081176016768      21.059999999999999
  1671   1      19.175000000000001      7.6643248234922812      23.399999999999999
  1672   1      19.175000000000001      9.3675081176016768      25.739999999999998
  1673   1      19.175000000000001      7.6643248234922812      28.079999999999998
  1674   1      19.175000000000001      9.3675081176016768      30.419999999999998
  1675   1      19.175000000000001      7.6643248234922812      32.759999999999998
  1676   1      19.175000000000001      9.3675081176016768      35.099999999999994
  1677   1      19.175000000000001      7.6643248234922812      37.439999999999998
  1678   1      19.175000000000001      9.3675081176016768      39.780000000000001
  1679   1      19.175000000000001      7.6643248234922812      42.119999999999997
  1680   1      19.175000000000001      9.3675081176016768      44.459999999999994
  1681   1      17.700000000000003      10.219099764656375                       0
  1682   1      17.700000000000003      11.922283058765771      2.3399999999999999
  1683   1      17.700000000000003      10.219099764656375      4.6799999999999997
  1684   1      17.700000000000003      11.922283058765771      7.0199999999999996
  1685   1      17.700000000000003      10.219099764656375      9.3599999999999994
  1686   1      17.700000000000003      11.922283058765771      11.699999999999999
  1687   1      17.700000000000003      10.219099764656375      14.039999999999999
  1688   1      17.700000000000003      11.922283058765771      16.379999999999999
  1689   1      17.700000000000003      10.219099764656375      18.719999999999999
  1690   1      17.700000000000003      11.922283058765771      21.059999999999999
  1691   1      17.700000000000003      10.219099764656375      23.399999999999999
  1692   1      17.700000000000003      11.922283058765771      25.739999999999998
  1693   1      17.700000000000003      10.219099764656375      28.079999999999998
  1694   1      17.700000000000003      11.922283058765771      30.419999999999998
  1695   1      17.700000000000003      10.219099764656375      32.759999999999998
  1696   1      17.700000000000003      11.922283058765771      35.099999999999994
  1697   1      17.700000000000003      10.219099764656375      37.439999999999998
  1698   1      17.700000000000003      11.922283058765771      39.780000000000001
  1699   1      17.700000000000003      10.219099764656375      42.119999999999997
  1700   1      17.700000000000003      11.922283058765771      44.459999999999994
  1701   1      16.225000000000001       12.77387470582047                       0
  1702   1      16.225000000000001      14.477057999929865      2.3399999999999999
  1703   1      16.225000000000001       12.77387470582047      4.6799999999999997
  1704   1      16.225000000000001      14.477057999929865      7.0199999999999996
  1705   1      16.225000000000001       12.77387470582047      9.3599999999999994
  1706   1      16.225000000000001      14.477057999929865      11.699999999999999
  1707   1      16.225000000000001       12.77387470582047      14.039999999999999
  1708   1      16.225000000000001      14.477057999929865      16.379999999999999
  1709   1      16.225000000000001       12.77387470582047      18.719999999999999
  1710   1      16.225000000000001      14.477057999929865      21.059999999999999
  1711   1      16.225000000000001       12.77387470582047      23.399999999999999
  1712   1      16.225000000000001      14.477057999929865      25.739999999999998
  1713   1      16.225000000000001       12.77387470582047      28.079999999999998
  1714   1      16.225000000000001      14.477057999929865      30.419999999999998
  1715   1      16.225000000000001       12.77387470582047      32.759999999999998
  1716   1      16.225000000000001      14.477057999929865      35.099999999999994
  1717   1      16.225000000000001       12.77387470582047      37.439999999999998
  1718   1      16.225000000000001      14.477057999929865      39.780000000000001
  1719   1      16.225000000000001       12.77387470582047      42.119999999999997
  1720   1      16.225000000000001      14.477057999929865      44.459999999999994
  1721   1                   14.75      15.328649646984562                       0
  1722   1                   14.75       17.03183294109396      2.3399999999999999
  1723   1                   14.75      15.328649646984562      4.6799999999999997
  1724   1                   14.75       17.03183294109396      7.0199999999999996
  1725   1                   14.75      15.328649646984562      9.3599999999999994
  1726   1                   14.75       17.03183294109396      11.699999999999999
  1727   1                   14.75      15.328649646984562      14.039999999999999
  1728   1                   14.75       17.03183294109396      16.379999999999999
  1729   1                   14.75      15.328649646984562      18.719999999999999
  1730   1                   14.75       17.03183294109396      21.059999999999999
  1731   1                   14.75      15.328649646984562      23.399999999999999
  1732   1                   14.75       17.03183294109396      25.739999999999998
  1733   1                   14.75      15.328649646984562      28.079999999999998
  1734   1                   14.75       17.03183294109396      30.419999999999998
  1735   1                   14.75      15.328649646984562      32.759999999999998
  1736   1                   14.75       17.03183294109396      35.099999999999994
  1737   1                   14.75      15.328649646984562      37.439999999999998
  1738   1                   14.75       17.03183294109396      39.780000000000001
  1739   1                   14.75      15.328649646984562      42.119999999999997
  1740   1                   14.75       17.03183294109396      44.459999999999994
  1741   1                  13.275      17.883424588148657                       0
  1742   1                  13.275      19.586607882258054      2.3399999999999999
  1743   1                  13.275      17.883424588148657      4.6799999999999997
  1744   1                  13.275      19.586607882258054      7.0199999999999996
  1745   1                  13.275      17.883424588148657      9.3599999999999994
  1746   1                  13.275      19.586607882258054      11.699999999999999
  1747   1                  13.275      17.883424588148657      14.039999999999999
  1748   1                  13.275      19.586607882258054      16.379999999999999
  1749   1                  13.275      17.883424588148657      18.719999999999999
  1750   1                  13.275      19.586607882258054      21.059999999999999
  1751   1                  13.275      17.883424588148657      23.399999999999999
  1752   1                  13.275      19.586607882258054      25.739999999999998
  1753   1                  13.275      17.883424588148657      28.079999999999998
  1754   1                  13.275      19.586607882258054      30.419999999999998
  1755   1                  13.275      17.883424588148657      32.759999999999998
  1756   1                  13.275      19.586607882258054      35.099999999999994
  1757   1                  13.275      17.883424588148657      37.439999999999998
  1758   1                  13.275      19.586607882258054      39.780000000000001
  1759   1                  13.275      17.883424588148657      42.119999999999997
  1760   1                  13.275      19.586607882258054      44.459999999999994
  1761   1      11.800000000000001      20.438199529312751                       0
  1762   1      11.800000000000001      22.141382823422148      2.3399999999999999
  1763   1      11.800000000000001      20.438199529312751      4.6799999999999997
  1764   1      11.800000000000001      22.141382823422148      7.0199999999999996
  1765   1      11.800000000000001      20.438199529312751      9.3599999999999994
  1766   1      11.800000000000001      22.141382823422148      11.699999999999999
  1767   1      11.800000000000001      20.438199529312751      14.039999999999999
  1768   1      11.800000000000001      22.141382823422148      16.379999999999999
  1769   1      11.800000000000001      20.438199529312751      18.719999999999999
  1770   1      11.800000000000001      22.141382823422148      21.059999999999999
  1771   1      11.800000000000001      20.438199529312751      23.399999999999999
  1772   1      11.800000000000001      22.141382823422148      25.739999999999998
  1773   1      11.800000000000001      20.438199529312751      28.079999999999998
  1774   1      11.800000000000001      22.141382823422148      30.419999999999998
  1775   1      11.800000000000001      20.438199529312751      32.759999999999998
  1776   1      11.800000000000001      22.141382823422148      35.099999999999994
  1777   1      11.800000000000001      20.438199529312751      37.439999999999998
  1778   1      11.800000000000001      22.141382823422148      39.780000000000001
  1779   1      11.800000000000001      20.438199529312751      42.119999999999997
  1780   1      11.800000000000001      22.141382823422148      44.459999999999994
  1781   1      10.325000000000001      22.992974470476845                       0
  1782   1      10.325000000000001      24.696157764586243      2.3399999999999999
  1783   1      10.325000000000001      22.992974470476845      4.6799999999999997
  1784   1      10.325000000000001      24.696157764586243      7.0199999999999996
  1785   1      10.325000000000001      22.992974470476845      9.3599999999999994
  1786   1      10.325000000000001      24.696157764586243      11.699999999999999
  1787   1      10.325000000000001      22.992974470476845      14.039999999999999
  1788   1      10.325000000000001      24.696157764586243      16.379999999999999
  1789   1      10.325000000000001      22.992974470476845      18.719999999999999
  1790   1      10.325000000000001      24.696157764586243      21.059999999999999
  1791   1      10.325000000000001      22.992974470476845      23.399999999999999
  1792   1      10.325000000000001      24.696157764586243      25.739999999999998
  1793   1      10.325000000000001      22.992974470476845      28.079999999999998
  1794   1      10.325000000000001      24.696157764586243      30.419999999999998
  1795   1      10.325000000000001      22.992974470476845      32.759999999999998
  1796   1      10.325000000000001      24.696157764586243      35.099999999999994
  1797   1      10.325000000000001      22.992974470476845      37.439999999999998
  1798   1      10.325000000000001      24.696157764586243      39.780000000000001
  1799   1      10.325000000000001      22.992974470476845      42.119999999999997
  1800   1      10.325000000000001      24.696157764586243      44.459999999999994
  1801   1      26.550000000000001                       0                       0
  1802   1      26.550000000000001      1.7031832941093958      2.3399999999999999
  1803   1      26.550000000000001                       0      4.6799999999999997
  1804   1      26.550000000000001      1.7031832941093958      7.0199999999999996
  1805   1      26.550000000000001                       0      9.3599999999999994
  1806   1      26.550000000000001      1.7031832941093958      11.699999999999999
  1807   1      26.550000000000001                       0      14.039999999999999
  1808   1      26.550000000000001      1.7031832941093958      16.379999999999999
  1809   1      26.550000000000001                       0      18.719999999999999
  1810   1      26.550000000000001      1.7031832941093958      21.059999999999999
  1811   1      26.550000000000001                       0      23.399999999999999
  1812   1      26.550000000000001      1.7031832941093958      25.739999999999998
  1813   1      26.550000000000001                       0      28.079999999999998
  1814   1      26.550000000000001      1.7031832941093958      30.419999999999998
  1815   1      26.550000000000001                       0      32.759999999999998
  1816   1      26.550000000000001      1.7031832941093958      35.099999999999994
  1817   1      26.550000000000001                       0      37.439999999999998
  1818   1      26.550000000000001      1.7031832941093958      39.780000000000001
  1819   1      26.550000000000001                       0      42.119999999999997
  1820   1      26.550000000000001      1.7031832941093958      44.459999999999994
  1821   1      25.074999999999999      2.5547749411640939                       0
  1822   1      25.074999999999999      4.2579582352734899      2.3399999999999999
  1823   1      25.074999999999999      2.5547749411640939      4.6799999999999997
  1824   1      25.074999999999999      4.2579582352734899      7.0199999999999996
  1825   1      25.074999999999999      2.5547749411640939      9.3599999999999994
  1826   1      25.074999999999999      4.2579582352734899      11.699999999999999
  1827   1      25.074999999999999      2.5547749411640939      14.039999999999999
  1828   1      25.074999999999999      4.2579582352734899      16.379999999999999
  1829   1      25.074999999999999      2.5547749411640939      18.719999999999999
  1830   1      25.074999999999999      4.2579582352734899      21.059999999999999
  1831   1      25.074999999999999      2.5547749411640939      23.399999999999999
  1832   1      25.074999999999999      4.2579582352734899      25.739999999999998
  1833   1      25.074999999999999      2.5547749411640939      28.079999999999998
  1834   1      25.074999999999999      4.2579582352734899      30.419999999999998
  1835   1      25.074999999999999      2.5547749411640939      32.759999999999998
  1836   1      25.074999999999999      4.2579582352734899      35.099999999999994
  1837   1      25.074999999999999      2.5547749411640939      37.439999999999998
  1838   1      25.074999999999999      4.2579582352734899      39.780000000000001
  1839   1      25.074999999999999      2.5547749411640939      42.119999999999997
  1840   1      25.074999999999999      4.2579582352734899      44.459999999999994
  1841   1      23.600000000000001      5.1095498823281877                       0
  1842   1      23.600000000000001      6.8127331764375834      2.3399999999999999
  1843   1      23.600000000000001      5.1095498823281877      4.6799999999999997
  1844   1      23.600000000000001      6.8127331764375834      7.0199999999999996
  1845   1      23.600000000000001      5.1095498823281877      9.3599999999999994
  1846   1      23.600000000000001      6.8127331764375834      11.699999999999999
  1847   1      23.600000000000001      5.1095498823281877      14.039999999999999
  1848   1      23.600000000000001      6.8127331764375834      16.379999999999999
  1849   1      23.600000000000001      5.1095498823281877      18.719999999999999
  1850   1      23.600000000000001      6.8127331764375834      21.059999999999999
  1851   1      23.600000000000001      5.1095498823281877      23.399999999999999
  1852   1      23.600000000000001      6.8127331764375834      25.739999999999998
  1853   1      23.600000000000001      5.1095498823281877      28.079999999999998
  1854   1      23.600000000000001      6.8127331764375834      30.419999999999998
  1855   1      23.600000000000001      5.1095498823281877      32.759999999999998
  1856   1      23.600000000000001      6.8127331764375834      35.099999999999994
  1857   1      23.600000000000001      5.1095498823281877      37.439999999999998
  1858   1      23.600000000000001      6.8127331764375834      39.780000000000001
  1859   1      23.600000000000001      5.1095498823281877      42.119999999999997
  1860   1      23.600000000000001      6.8127331764375834      44.459999999999994
  1861   1                  22.125      7.6643248234922812                       0
  1862   1                  22.125      9.3675081176016768      2.3399999999999999
  1863   1                  22.125      7.6643248234922812      4.6799999999999997
  1864   1                  22.125      9.3675081176016768      7.0199999999999996
  1865   1                  22.125      7.6643248234922812      9.3599999999999994
  1866   1                  22.125      9.3675081176016768      11.699999999999999
  1867   1                  22.125      7.6643248234922812      14.039999999999999
  1868   1                  22.125      9.3675081176016768      16.379999999999999
  1869   1                  22.125      7.6643248234922812      18.719999999999999
  1870   1                  22.125      9.3675081176016768      21.059999999999999
  1871   1                  22.125      7.6643248234922812      23.399999999999999
  1872   1                  22.125      9.3675081176016768      25.739999999999998
  1873   1                  22.125      7.6643248234922812      28.079999999999998
  1874   1                  22.125      9.3675081176016768      30.419999999999998
  1875   1                  22.125      7.6643248234922812      32.759999999999998
  1876   1                  22.125      9.3675081176016768      35.099999999999994
  1877   1                  22.125      7.6643248234922812      37.439999999999998
  1878   1                  22.125      9.3675081176016768      39.780000000000001
  1879   1                  22.125      7.6643248234922812      42.119999999999997
  1880   1                  22.125      9.3675081176016768      44.459999999999994
  1881   1      20.649999999999999      10.219099764656375                       0
  1882   1      20.649999999999999      11.922283058765771      2.3399999999999999
  1883   1      20.649999999999999      10.219099764656375      4.6799999999999997
  1884   1      20.649999999999999      11.922283058765771      7.0199999999999996
  1885   1      20.649999999999999      10.219099764656375      9.3599999999999994
  1886   1      20.649999999999999      11.922283058765771      11.699999999999999
  1887   1      20.649999999999999      10.219099764656375      14.039999999999999
  1888   1      20.649999999999999      11.922283058765771      16.379999999999999
  1889   1      20.649999999999999      10.219099764656375      18.719999999999999
  1890   1      20.649999999999999      11.922283058765771      21.059999999999999
  1891   1      20.649999999999999      10.219099764656375      23.399999999999999
  1892   1      20.649999999999999      11.922283058765771      25.739999999999998
  1893   1      20.649999999999999      10.219099764656375      28.079999999999998
  1894   1      20.649999999999999      11.922283058765771      30.419999999999998
  1895   1      20.649999999999999      10.219099764656375      32.759999999999998
  1896   1      20.649999999999999      11.922283058765771      35.099999999999994
  1897   1      20.649999999999999      10.219099764656375      37.439999999999998
  1898   1      20.649999999999999      11.922283058765771      39.780000000000001
  1899   1      20.649999999999999      10.219099764656375      42.119999999999997
  1900   1      20.649999999999999      11.922283058765771      44.459999999999994
  1901   1      19.175000000000001       12.77387470582047                       0
  1902   1      19.175000000000001      14.477057999929865      2.3399999999999999
  1903   1      19.175000000000001       12.77387470582047      4.6799999999999997
  1904   1      19.175000000000001      14.477057999929865      7.0199999999999996
  1905   1      19.175000000000001       12.77387470582047      9.3599999999999994
  1906   1      19.175000000000001      14.477057999929865      11.699999999999999
  1907   1      19.175000000000001       12.77387470582047      14.039999999999999
  1908   1      19.175000000000001      14.477057999929865      16.379999999999999
  1909   1      19.175000000000001       12.77387470582047      18.719999999999999
  1910   1      19.175000000000001      14.477057999929865      21.059999999999999
  1911   1      19.175000000000001       12.77387470582047      23.399999999999999
  1912   1      19.175000000000001      14.477057999929865      25.739999999999998
  1913   1      19.175000000000001       12.77387470582047      28.079999999999998
  1914   1      19.175000000000001      14.477057999929865      30.419999999999998
  1915   1      19.175000000000001       12.77387470582047      32.759999999999998
  1916   1      19.175000000000001      14.477057999929865      35.099999999999994
  1917   1      19.175000000000001       12.77387470582047      37.439999999999998
  1918   1      19.175000000000001      14.477057999929865      39.780000000000001
  1919   1      19.175000000000001       12.77387470582047      42.119999999999997
  1920   1      19.175000000000001      14.477057999929865      44.459999999999994
  1921   1      17.699999999999999      15.328649646984562                       0
  1922   1      17.699999999999999       17.03183294109396      2.3399999999999999
  1923   1      17.699999999999999      15.328649646984562      4.6799999999999997
  1924   1      17.699999999999999       17.03183294109396      7.0199999999999996
  1925   1      17.699999999999999      15.328649646984562      9.3599999999999994
  1926   1      17.699999999999999       17.03183294109396      11.699999999999999
  1927   1      17.699999999999999      15.328649646984562      14.039999999999999
  1928   1      17.699999999999999       17.03183294109396      16.379999999999999
  1929   1      17.699999999999999      15.328649646984562      18.719999999999999
  1930   1      17.699999999999999       17.03183294109396      21.059999999999999
  1931   1      17.699999999999999      15.328649646984562      23.399999999999999
  1932   1      17.699999999999999       17.03183294109396      25.739999999999998
  1933   1      17.699999999999999      15.328649646984562      28.079999999999998
  1934   1      17.699999999999999       17.03183294109396      30.419999999999998
  1935   1      17.699999999999999      15.328649646984562      32.759999999999998
  1936   1      17.699999999999999       17.03183294109396      35.099999999999994
  1937   1      17.699999999999999      15.328649646984562      37.439999999999998
  1938   1      17.699999999999999       17.03183294109396      39.780000000000001
  1939   1      17.699999999999999      15.328649646984562      42.119999999999997
  1940   1      17.699999999999999       17.03183294109396      44.459999999999994
  1941   1      16.225000000000001      17.883424588148657                       0
  1942   1      16.225000000000001      19.586607882258054      2.3399999999999999
  1943   1      16.225000000000001      17.883424588148657      4.6799999999999997
  1944   1      16.225000000000001      19.586607882258054      7.0199999999999996
  1945   1      16.225000000000001      17.883424588148657      9.3599999999999994
  1946   1      16.225000000000001      19.586607882258054      11.699999999999999
  1947   1      16.225000000000001      17.883424588148657      14.039999999999999
  1948   1      16.225000000000001      19.586607882258054      16.379999999999999
  1949   1      16.225000000000001      17.883424588148657      18.719999999999999
  1950   1      16.225000000000001      19.586607882258054      21.059999999999999
  1951   1      16.225000000000001      17.883424588148657      23.399999999999999
  1952   1      16.225000000000001      19.586607882258054      25.739999999999998
  1953   1      16.225000000000001      17.883424588148657      28.079999999999998
  1954   1      16.225000000000001      19.586607882258054      30.419999999999998
  1955   1      16.225000000000001      17.883424588148657      32.759999999999998
  1956   1      16.225000000000001      19.586607882258054      35.099999999999994
  1957   1      16.225000000000001      17.883424588148657      37.439999999999998
  1958   1      16.225000000000001      19.586607882258054      39.780000000000001
  1959   1      16.225000000000001      17.883424588148657      42.119999999999997
  1960   1      16.225000000000001      19.586607882258054      44.459999999999994
  1961   1                   14.75      20.438199529312751                       0
  1962   1                   14.75      22.141382823422148      2.3399999999999999
  1963   1                   14.75      20.438199529312751      4.6799999999999997
  1964   1                   14.75      22.141382823422148      7.0199999999999996
  1965   1                   14.75      20.438199529312751      9.3599999999999994
  1966   1                   14.75      22.141382823422148      11.699999999999999
  1967   1                   14.75      20.438199529312751      14.039999999999999
  1968   1                   14.75      22.141382823422148      16.379999999999999
  1969   1                   14.75      20.438199529312751      18.719999999999999
  1970   1                   14.75      22.141382823422148      21.059999999999999
  1971   1                   14.75      20.438199529312751      23.399999999999999
  1972   1                   14.75      22.141382823422148      25.739999999999998
  1973   1                   14.75      20.438199529312751      28.079999999999998
  1974   1                   14.75      22.141382823422148      30.419999999999998
  1975   1                   14.75      20.438199529312751      32.759999999999998
  1976   1                   14.75      22.141382823422148      35.099999999999994
  1977   1                   14.75      20.438199529312751      37.439999999999998
  1978   1                   14.75      22.141382823422148      39.780000000000001
  1979   1                   14.75      20.438199529312751      42.119999999999997
  1980   1                   14.75      22.141382823422148      44.459999999999994
  1981   1                  13.275      22.992974470476845                       0
  1982   1                  13.275      24.696157764586243      2.3399999999999999
  1983   1                  13.275      22.992974470476845      4.6799999999999997
  1984   1                  13.275      24.696157764586243      7.0199999999999996
  1985   1                  13.275      22.992974470476845      9.3599999999999994
  1986   1                  13.275      24.696157764586243      11.699999999999999
  1987   1                  13.275      22.992974470476845      14.039999999999999
  1988   1                  13.275      24.696157764586243      16.379999999999999
  1989   1                  13.275      22.992974470476845      18.719999999999999
  1990   1                  13.275      24.696157764586243      21.059999999999999
  1991   1                  13.275      22.992974470476845      23.399999999999999
  1992   1                  13.275      24.696157764586243      25.739999999999998
  1993   1                  13.275      22.992974470476845      28.079999999999998
  1994   1                  13.275      24.696157764586243      30.419999999999998
  1995   1                  13.275      22.992974470476845      32.759999999999998
  1996   1                  13.275      24.696157764586243      35.099999999999994
  1997   1                  13.275      22.992974470476845      37.439999999999998
  1998   1                  13.275      24.696157764586243      39.780000000000001
  1999   1                  13.275      22.992974470476845      42.119999999999997
  2000   1                  13.275      24.696157764586243      44.459999999999994
