LAMMPS data file via write_data, version 7 Feb 2024, timestep = 11, units = metal

2000 atoms
1 atom types

0.017327177139247828 29.482672822860756 xlo xhi
0.015005686570506526 25.53274372507043 ylo yhi
-0.12152900938957241 46.92152900938957 zlo zhi
-14.732645316700102 1.3198699862048053e-15 7.4683542555208525e-16 xy xz yz

Masses

1 47.867

Atoms # atomic

21 1 28.009408242615482 2.5667794903363785 -0.12152900938957241 -1 0 0
22 1 -1.4559354722114566 4.267962026404617 2.2306238915493846 0 0 0
1 1 14.75002745758539 25.532743724986307 -0.12152900938957241 -1 -1 0
2 1 0.01732905945855254 1.716188222554623 2.2306238915493846 0 0 0
201 1 -11.768783623563966 25.532743724986307 -0.12152900938957241 0 -1 0
202 1 2.963863624030702 1.716188222554623 2.2306238915493846 0 0 0
221 1 1.490597161466126 2.5667794903363785 -0.12152900938957241 0 0 0
222 1 1.4905990923606949 4.267962026404617 2.2306238915493846 0 0 0
421 1 4.437131726038278 2.5667794903363785 -0.12152900938957241 0 0 0
422 1 4.437133656932846 4.267962026404617 2.2306238915493846 0 0 0
401 1 -8.822249058991815 25.532743724986307 -0.12152900938957241 0 -1 0
402 1 5.910398188602855 1.716188222554623 2.2306238915493846 0 0 0
601 1 -5.875714494419664 25.532743724986307 -0.12152900938957241 0 -1 0
602 1 8.856932753175002 1.716188222554623 2.2306238915493846 0 0 0
621 1 7.383666290610428 2.5667794903363785 -0.12152900938957241 0 0 0
622 1 7.383668221504995 4.267962026404617 2.2306238915493846 0 0 0
801 1 -2.929179929847513 25.532743724986307 -0.12152900938957241 0 -1 0
802 1 11.803467317747149 1.716188222554623 2.2306238915493846 0 0 0
821 1 10.33020085518258 2.5667794903363785 -0.12152900938957241 0 0 0
822 1 10.330202786077146 4.267962026404617 2.2306238915493846 0 0 0
1021 1 13.276735419754727 2.5667794903363785 -0.12152900938957241 0 0 0
1022 1 13.2767373506493 4.267962026404617 2.2306238915493846 0 0 0
1001 1 0.01735463472463896 25.532743724986307 -0.12152900938957241 0 -1 0
1002 1 14.750001882319308 1.716188222554623 2.2306238915493846 0 0 0
1201 1 2.9638891992967915 25.532743724986307 -0.12152900938957241 0 -1 0
1202 1 17.696536446891468 1.716188222554623 2.2306238915493846 0 0 0
1221 1 16.223269984326883 2.5667794903363785 -0.12152900938957241 0 0 0
1222 1 16.223271915221456 4.267962026404617 2.2306238915493846 0 0 0
1421 1 19.169804548899034 2.5667794903363785 -0.12152900938957241 0 0 0
1422 1 19.169806479793596 4.267962026404617 2.2306238915493846 0 0 0
1401 1 5.910423763868935 25.532743724986307 -0.12152900938957241 0 -1 0
1402 1 20.6430710114636 1.716188222554623 2.2306238915493846 0 0 0
1601 1 8.856958328441081 25.532743724986307 -0.12152900938957241 0 -1 0
1602 1 23.589605576035755 1.716188222554623 2.2306238915493846 0 0 0
1621 1 22.11633911347118 2.5667794903363785 -0.12152900938957241 0 0 0
1622 1 22.11634104436575 4.267962026404617 2.2306238915493846 0 0 0
1801 1 11.803492893013235 25.532743724986307 -0.12152900938957241 0 -1 0
1802 1 26.536140140607902 1.716188222554623 2.2306238915493846 0 0 0
1821 1 25.062873678043335 2.5667794903363785 -0.12152900938957241 0 0 0
1822 1 25.062875608937894 4.267962026404617 2.2306238915493846 0 0 0
41 1 26.536143710945474 5.118553294186372 -0.12152900938957241 -1 0 0
42 1 -2.929200003881471 6.819735830254608 2.2306238915493846 0 0 0
61 1 25.06287917927546 7.6703270980363625 -0.12152900938957241 -1 0 0
62 1 -4.4024645355514815 9.371509634104598 2.2306238915493846 0 0 0
261 1 -1.4559319018738959 7.6703270980363625 -0.12152900938957241 0 0 0
262 1 -1.4559299709793307 9.371509634104598 2.2306238915493846 0 0 0
241 1 0.017332629796115627 5.118553294186372 -0.12152900938957241 0 0 0
242 1 0.017334560690681265 6.819735830254608 2.2306238915493846 0 0 0
441 1 2.9638671943682673 5.118553294186372 -0.12152900938957241 0 0 0
442 1 2.96386912526283 6.819735830254608 2.2306238915493846 0 0 0
461 1 1.4906026626982543 7.6703270980363625 -0.12152900938957241 0 0 0
462 1 1.4906045935928212 9.371509634104598 2.2306238915493846 0 0 0
661 1 4.437137227270408 7.6703270980363625 -0.12152900938957241 0 0 0
662 1 4.437139158164969 9.371509634104598 2.2306238915493846 0 0 0
641 1 5.910401758940421 5.118553294186372 -0.12152900938957241 0 0 0
642 1 5.91040368983498 6.819735830254608 2.2306238915493846 0 0 0
841 1 8.85693632351257 5.118553294186372 -0.12152900938957241 0 0 0
842 1 8.856938254407126 6.819735830254608 2.2306238915493846 0 0 0
861 1 7.383671791842558 7.6703270980363625 -0.12152900938957241 0 0 0
862 1 7.383673722737122 9.371509634104598 2.2306238915493846 0 0 0
1041 1 11.803470888084721 5.118553294186372 -0.12152900938957241 0 0 0
1042 1 11.80347281897928 6.819735830254608 2.2306238915493846 0 0 0
1061 1 10.330206356414704 7.6703270980363625 -0.12152900938957241 0 0 0
1062 1 10.330208287309276 9.371509634104598 2.2306238915493846 0 0 0
1261 1 13.276740920986862 7.6703270980363625 -0.12152900938957241 0 0 0
1262 1 13.27674285188142 9.371509634104598 2.2306238915493846 0 0 0
1241 1 14.750005452656872 5.118553294186372 -0.12152900938957241 0 0 0
1242 1 14.750007383551429 6.819735830254608 2.2306238915493846 0 0 0
1441 1 17.69654001722901 5.118553294186372 -0.12152900938957241 0 0 0
1442 1 17.696541948123592 6.819735830254608 2.2306238915493846 0 0 0
1461 1 16.223275485559018 7.6703270980363625 -0.12152900938957241 0 0 0
1462 1 16.223277416453573 9.371509634104598 2.2306238915493846 0 0 0
1661 1 19.169810050131158 7.6703270980363625 -0.12152900938957241 0 0 0
1662 1 19.169811981025727 9.371509634104598 2.2306238915493846 0 0 0
1641 1 20.643074581801173 5.118553294186372 -0.12152900938957241 0 0 0
1642 1 20.64307651269574 6.819735830254608 2.2306238915493846 0 0 0
1841 1 23.58960914637332 5.118553294186372 -0.12152900938957241 0 0 0
1842 1 23.58961107726788 6.819735830254608 2.2306238915493846 0 0 0
1861 1 22.11634461470332 7.6703270980363625 -0.12152900938957241 0 0 0
1862 1 22.116346545597867 9.371509634104598 2.2306238915493846 0 0 0
81 1 23.589614647605448 10.222100901886359 -0.12152900938957241 -1 0 0
82 1 -5.875729067221489 11.923283437954598 2.2306238915493846 0 0 0
101 1 22.116350115935436 12.77387470573635 -0.12152900938957241 -1 0 0
102 1 -7.348993598891499 14.475057241804585 2.2306238915493846 0 0 0
281 1 -2.9291964335439054 10.222100901886359 -0.12152900938957241 0 0 0
282 1 -2.9291945026493433 11.923283437954598 2.2306238915493846 0 0 0
301 1 -4.402460965213918 12.77387470573635 -0.12152900938957241 0 0 0
302 1 -4.40245903431935 14.475057241804585 2.2306238915493846 0 0 0
501 1 -1.4559264006417678 12.77387470573635 -0.12152900938957241 0 0 0
502 1 -1.4559244697471974 14.475057241804585 2.2306238915493846 0 0 0
481 1 0.01733813102824546 10.222100901886359 -0.12152900938957241 0 0 0
482 1 0.017340061922810655 11.923283437954598 2.2306238915493846 0 0 0
681 1 2.963872695600398 10.222100901886359 -0.12152900938957241 0 0 0
682 1 2.9638746264949605 11.923283437954598 2.2306238915493846 0 0 0
701 1 1.49060816393038 12.77387470573635 -0.12152900938957241 0 0 0
702 1 1.490610094824947 14.475057241804585 2.2306238915493846 0 0 0
901 1 4.437142728502534 12.77387470573635 -0.12152900938957241 0 0 0
902 1 4.437144659397103 14.475057241804585 2.2306238915493846 0 0 0
881 1 5.910407260172545 10.222100901886359 -0.12152900938957241 0 0 0
882 1 5.9104091910671075 11.923283437954598 2.2306238915493846 0 0 0
1081 1 8.856941824744698 10.222100901886359 -0.12152900938957241 0 0 0
1082 1 8.856943755639263 11.923283437954598 2.2306238915493846 0 0 0
1101 1 7.3836772930746815 12.77387470573635 -0.12152900938957241 0 0 0
1102 1 7.383679223969254 14.475057241804585 2.2306238915493846 0 0 0
1281 1 11.803476389316849 10.222100901886359 -0.12152900938957241 0 0 0
1282 1 11.803478320211422 11.923283437954598 2.2306238915493846 0 0 0
1301 1 10.330211857646827 12.77387470573635 -0.12152900938957241 0 0 0
1302 1 10.330213788541405 14.475057241804585 2.2306238915493846 0 0 0
1501 1 13.276746422218984 12.77387470573635 -0.12152900938957241 0 0 0
1502 1 13.27674835311356 14.475057241804585 2.2306238915493846 0 0 0
1481 1 14.750010953889003 10.222100901886359 -0.12152900938957241 0 0 0
1482 1 14.750012884783562 11.923283437954598 2.2306238915493846 0 0 0
1681 1 17.696545518461154 10.222100901886359 -0.12152900938957241 0 0 0
1682 1 17.696547449355716 11.923283437954598 2.2306238915493846 0 0 0
1701 1 16.223280986791142 12.77387470573635 -0.12152900938957241 0 0 0
1702 1 16.223282917685705 14.475057241804585 2.2306238915493846 0 0 0
1901 1 19.169815551363293 12.77387470573635 -0.12152900938957241 0 0 0
1902 1 19.16981748225785 14.475057241804585 2.2306238915493846 0 0 0
1881 1 20.6430800830333 10.222100901886359 -0.12152900938957241 0 0 0
1882 1 20.643082013927863 11.923283437954598 2.2306238915493846 0 0 0
141 1 19.16982105259542 17.877422313436334 -0.12152900938957241 -1 0 0
142 1 -10.295522662231518 19.578604849504583 2.2306238915493846 0 0 0
121 1 20.643085584265425 15.325648509586351 -0.12152900938957241 -1 0 0
122 1 -8.822258130561506 17.026831045654582 2.2306238915493846 0 0 0
321 1 -5.875725496883933 15.325648509586351 -0.12152900938957241 0 0 0
322 1 -5.875723565989355 17.026831045654582 2.2306238915493846 0 0 0
341 1 -7.348990028553941 17.877422313436334 -0.12152900938957241 0 0 0
342 1 -7.34898809765937 19.578604849504583 2.2306238915493846 0 0 0
521 1 -2.929190932311778 15.325648509586351 -0.12152900938957241 0 0 0
522 1 -2.9291890014172024 17.026831045654582 2.2306238915493846 0 0 0
541 1 -4.402455463981788 17.877422313436334 -0.12152900938957241 0 0 0
542 1 -4.402453533087216 19.578604849504583 2.2306238915493846 0 0 0
741 1 -1.4559208994096384 17.877422313436334 -0.12152900938957241 0 0 0
742 1 -1.4559189685150689 19.578604849504583 2.2306238915493846 0 0 0
721 1 0.017343632260373075 15.325648509586351 -0.12152900938957241 0 0 0
722 1 0.01734556315494804 17.026831045654582 2.2306238915493846 0 0 0
921 1 2.963878196832522 15.325648509586351 -0.12152900938957241 0 0 0
922 1 2.9638801277271005 17.026831045654582 2.2306238915493846 0 0 0
941 1 1.490613665162514 17.877422313436334 -0.12152900938957241 0 0 0
942 1 1.490615596057087 19.578604849504583 2.2306238915493846 0 0 0
1141 1 4.437148229734663 17.877422313436334 -0.12152900938957241 0 0 0
1142 1 4.437150160629236 19.578604849504583 2.2306238915493846 0 0 0
1121 1 5.910412761404671 15.325648509586351 -0.12152900938957241 0 0 0
1122 1 5.910414692299246 17.026831045654582 2.2306238915493846 0 0 0
1321 1 8.856947325976817 15.325648509586351 -0.12152900938957241 0 0 0
1322 1 8.856949256871408 17.026831045654582 2.2306238915493846 0 0 0
1341 1 7.383682794306824 17.877422313436334 -0.12152900938957241 0 0 0
1342 1 7.383684725201387 19.578604849504583 2.2306238915493846 0 0 0
1521 1 11.803481890548971 15.325648509586351 -0.12152900938957241 0 0 0
1522 1 11.803483821443548 17.026831045654582 2.2306238915493846 0 0 0
1541 1 10.33021735887897 17.877422313436334 -0.12152900938957241 0 0 0
1542 1 10.330219289773533 19.578604849504583 2.2306238915493846 0 0 0
1741 1 13.276751923451114 17.877422313436334 -0.12152900938957241 0 0 0
1742 1 13.276753854345694 19.578604849504583 2.2306238915493846 0 0 0
1721 1 14.750016455121118 15.325648509586351 -0.12152900938957241 0 0 0
1722 1 14.750018386015698 17.026831045654582 2.2306238915493846 0 0 0
1921 1 17.696551019693263 15.325648509586351 -0.12152900938957241 0 0 0
1922 1 17.696552950587854 17.026831045654582 2.2306238915493846 0 0 0
1941 1 16.223286488023273 17.877422313436334 -0.12152900938957241 0 0 0
1942 1 16.223288418917836 19.578604849504583 2.2306238915493846 0 0 0
161 1 17.69655652092541 20.429196117286335 -0.12152900938957241 -1 0 0
162 1 -11.768787193901534 22.130378653354576 2.2306238915493846 0 0 0
181 1 16.223291989255397 22.98096992113632 -0.12152900938957241 -1 0 0
182 1 -13.24205172557154 24.682152457204573 2.2306238915493846 0 0 0
381 1 -10.295519091893958 22.98096992113632 -0.12152900938957241 0 0 0
382 1 -10.29551716099939 24.682152457204573 2.2306238915493846 0 0 0
361 1 -8.82225456022395 20.429196117286335 -0.12152900938957241 0 0 0
362 1 -8.822252629329384 22.130378653354576 2.2306238915493846 0 0 0
561 1 -5.875719995651801 20.429196117286335 -0.12152900938957241 0 0 0
562 1 -5.875718064757232 22.130378653354576 2.2306238915493846 0 0 0
581 1 -7.3489845273218055 22.98096992113632 -0.12152900938957241 0 0 0
582 1 -7.348982596427238 24.682152457204573 2.2306238915493846 0 0 0
761 1 -2.929185431079646 20.429196117286335 -0.12152900938957241 0 0 0
762 1 -2.9291835001850837 22.130378653354576 2.2306238915493846 0 0 0
781 1 -4.402449962749658 22.98096992113632 -0.12152900938957241 0 0 0
782 1 -4.4024480318550845 24.682152457204573 2.2306238915493846 0 0 0
981 1 -1.4559153981775037 22.98096992113632 -0.12152900938957241 0 0 0
982 1 -1.4559134672829377 24.682152457204573 2.2306238915493846 0 0 0
961 1 0.01734913349250069 20.429196117286335 -0.12152900938957241 0 0 0
962 1 0.017351064387068547 22.130378653354576 2.2306238915493846 0 0 0
1161 1 2.9638836980646515 20.429196117286335 -0.12152900938957241 0 0 0
1162 1 2.963885628959223 22.130378653354576 2.2306238915493846 0 0 0
1181 1 1.4906191663946433 22.98096992113632 -0.12152900938957241 0 0 0
1182 1 1.4906210972892147 24.682152457204573 2.2306238915493846 0 0 0
1381 1 4.437153730966798 22.98096992113632 -0.12152900938957241 0 0 0
1382 1 4.437155661861373 24.682152457204573 2.2306238915493846 0 0 0
1361 1 5.910418262636806 20.429196117286335 -0.12152900938957241 0 0 0
1362 1 5.910420193531375 22.130378653354576 2.2306238915493846 0 0 0
1561 1 8.856952827208955 20.429196117286335 -0.12152900938957241 0 0 0
1562 1 8.856954758103521 22.130378653354576 2.2306238915493846 0 0 0
1581 1 7.383688295538948 22.98096992113632 -0.12152900938957241 0 0 0
1582 1 7.38369022643352 24.682152457204573 2.2306238915493846 0 0 0
1761 1 11.803487391781102 20.429196117286335 -0.12152900938957241 0 0 0
1762 1 11.803489322675668 22.130378653354576 2.2306238915493846 0 0 0
1781 1 10.330222860111098 22.98096992113632 -0.12152900938957241 0 0 0
1782 1 10.330224791005676 24.682152457204573 2.2306238915493846 0 0 0
1981 1 13.276757424683245 22.98096992113632 -0.12152900938957241 0 0 0
1982 1 13.276759355577806 24.682152457204573 2.2306238915493846 0 0 0
1961 1 14.750021956353246 20.429196117286335 -0.12152900938957241 0 0 0
1962 1 14.750023887247822 22.130378653354576 2.2306238915493846 0 0 0
23 1 28.009408242615486 2.5667794903363785 4.582776792488342 -1 0 0
24 1 -1.4559354722114555 4.267962026404617 6.934929693427299 0 0 0
3 1 14.75002745758539 25.532743724986307 4.582776792488342 -1 -1 0
4 1 0.017329059458552228 1.7161882225546243 6.934929693427299 0 0 0
203 1 -11.768783623563966 25.532743724986307 4.582776792488342 0 -1 0
204 1 2.9638636240307017 1.7161882225546243 6.934929693427299 0 0 0
223 1 1.4905971614661266 2.5667794903363785 4.582776792488342 0 0 0
224 1 1.490599092360695 4.267962026404617 6.934929693427299 0 0 0
423 1 4.437131726038278 2.5667794903363785 4.582776792488342 0 0 0
424 1 4.437133656932846 4.267962026404617 6.934929693427299 0 0 0
403 1 -8.822249058991815 25.532743724986307 4.582776792488342 0 -1 0
404 1 5.910398188602854 1.7161882225546243 6.934929693427299 0 0 0
603 1 -5.875714494419664 25.532743724986307 4.582776792488342 0 -1 0
604 1 8.856932753174998 1.7161882225546243 6.934929693427299 0 0 0
623 1 7.383666290610428 2.5667794903363785 4.582776792488342 0 0 0
624 1 7.383668221504995 4.267962026404617 6.934929693427299 0 0 0
803 1 -2.929179929847513 25.532743724986307 4.582776792488342 0 -1 0
804 1 11.803467317747147 1.7161882225546243 6.934929693427299 0 0 0
823 1 10.33020085518258 2.5667794903363785 4.582776792488342 0 0 0
824 1 10.330202786077146 4.267962026404617 6.934929693427299 0 0 0
1023 1 13.276735419754727 2.5667794903363785 4.582776792488342 0 0 0
1024 1 13.2767373506493 4.267962026404617 6.934929693427299 0 0 0
1003 1 0.017354634724639093 25.532743724986307 4.582776792488342 0 -1 0
1004 1 14.750001882319305 1.7161882225546243 6.934929693427299 0 0 0
1203 1 2.963889199296795 25.532743724986307 4.582776792488342 0 -1 0
1204 1 17.696536446891475 1.7161882225546243 6.934929693427299 0 0 0
1223 1 16.223269984326883 2.5667794903363785 4.582776792488342 0 0 0
1224 1 16.223271915221456 4.267962026404617 6.934929693427299 0 0 0
1423 1 19.169804548899034 2.5667794903363785 4.582776792488342 0 0 0
1424 1 19.169806479793596 4.267962026404617 6.934929693427299 0 0 0
1403 1 5.9104237638689385 25.532743724986307 4.582776792488342 0 -1 0
1404 1 20.643071011463608 1.7161882225546243 6.934929693427299 0 0 0
1603 1 8.856958328441085 25.532743724986307 4.582776792488342 0 -1 0
1604 1 23.589605576035765 1.7161882225546243 6.934929693427299 0 0 0
1623 1 22.11633911347118 2.5667794903363785 4.582776792488342 0 0 0
1624 1 22.11634104436575 4.267962026404617 6.934929693427299 0 0 0
1803 1 11.803492893013239 25.532743724986307 4.582776792488342 0 -1 0
1804 1 26.536140140607912 1.7161882225546243 6.934929693427299 0 0 0
1823 1 25.062873678043335 2.5667794903363785 4.582776792488342 0 0 0
1824 1 25.062875608937894 4.267962026404617 6.934929693427299 0 0 0
43 1 26.536143710945474 5.118553294186372 4.582776792488342 -1 0 0
44 1 -2.92920000388147 6.819735830254608 6.934929693427299 0 0 0
63 1 25.06287917927546 7.6703270980363625 4.582776792488342 -1 0 0
64 1 -4.40246453555148 9.371509634104598 6.934929693427299 0 0 0
263 1 -1.4559319018738957 7.6703270980363625 4.582776792488342 0 0 0
264 1 -1.4559299709793305 9.371509634104598 6.934929693427299 0 0 0
243 1 0.017332629796115315 5.118553294186372 4.582776792488342 0 0 0
244 1 0.017334560690681396 6.819735830254608 6.934929693427299 0 0 0
443 1 2.9638671943682673 5.118553294186372 4.582776792488342 0 0 0
444 1 2.96386912526283 6.819735830254608 6.934929693427299 0 0 0
463 1 1.4906026626982554 7.6703270980363625 4.582776792488342 0 0 0
464 1 1.4906045935928214 9.371509634104598 6.934929693427299 0 0 0
663 1 4.437137227270408 7.6703270980363625 4.582776792488342 0 0 0
664 1 4.437139158164969 9.371509634104598 6.934929693427299 0 0 0
643 1 5.910401758940421 5.118553294186372 4.582776792488342 0 0 0
644 1 5.91040368983498 6.819735830254608 6.934929693427299 0 0 0
843 1 8.85693632351257 5.118553294186372 4.582776792488342 0 0 0
844 1 8.856938254407126 6.819735830254608 6.934929693427299 0 0 0
863 1 7.383671791842558 7.6703270980363625 4.582776792488342 0 0 0
864 1 7.383673722737122 9.371509634104598 6.934929693427299 0 0 0
1043 1 11.803470888084721 5.118553294186372 4.582776792488342 0 0 0
1044 1 11.80347281897928 6.819735830254608 6.934929693427299 0 0 0
1063 1 10.330206356414704 7.6703270980363625 4.582776792488342 0 0 0
1064 1 10.330208287309276 9.371509634104598 6.934929693427299 0 0 0
1263 1 13.276740920986862 7.6703270980363625 4.582776792488342 0 0 0
1264 1 13.27674285188142 9.371509634104598 6.934929693427299 0 0 0
1243 1 14.750005452656872 5.118553294186372 4.582776792488342 0 0 0
1244 1 14.750007383551429 6.819735830254608 6.934929693427299 0 0 0
1443 1 17.69654001722901 5.118553294186372 4.582776792488342 0 0 0
1444 1 17.696541948123592 6.819735830254608 6.934929693427299 0 0 0
1463 1 16.223275485559018 7.6703270980363625 4.582776792488342 0 0 0
1464 1 16.223277416453573 9.371509634104598 6.934929693427299 0 0 0
1663 1 19.169810050131158 7.6703270980363625 4.582776792488342 0 0 0
1664 1 19.169811981025727 9.371509634104598 6.934929693427299 0 0 0
1643 1 20.643074581801173 5.118553294186372 4.582776792488342 0 0 0
1644 1 20.64307651269574 6.819735830254608 6.934929693427299 0 0 0
1843 1 23.58960914637332 5.118553294186372 4.582776792488342 0 0 0
1844 1 23.58961107726788 6.819735830254608 6.934929693427299 0 0 0
1863 1 22.11634461470332 7.6703270980363625 4.582776792488342 0 0 0
1864 1 22.116346545597867 9.371509634104598 6.934929693427299 0 0 0
83 1 23.58961464760545 10.222100901886359 4.582776792488342 -1 0 0
84 1 -5.8757290672214895 11.923283437954598 6.934929693427299 0 0 0
103 1 22.116350115935436 12.77387470573635 4.582776792488342 -1 0 0
104 1 -7.348993598891499 14.475057241804585 6.934929693427299 0 0 0
283 1 -2.9291964335439054 10.222100901886359 4.582776792488342 0 0 0
284 1 -2.9291945026493433 11.923283437954598 6.934929693427299 0 0 0
303 1 -4.402460965213918 12.77387470573635 4.582776792488342 0 0 0
304 1 -4.40245903431935 14.475057241804585 6.934929693427299 0 0 0
503 1 -1.4559264006417667 12.77387470573635 4.582776792488342 0 0 0
504 1 -1.4559244697471971 14.475057241804585 6.934929693427299 0 0 0
483 1 0.017338131028245593 10.222100901886359 4.582776792488342 0 0 0
484 1 0.017340061922810786 11.923283437954598 6.934929693427299 0 0 0
683 1 2.963872695600398 10.222100901886359 4.582776792488342 0 0 0
684 1 2.9638746264949605 11.923283437954598 6.934929693427299 0 0 0
703 1 1.4906081639303803 12.77387470573635 4.582776792488342 0 0 0
704 1 1.490610094824949 14.475057241804585 6.934929693427299 0 0 0
903 1 4.437142728502534 12.77387470573635 4.582776792488342 0 0 0
904 1 4.437144659397103 14.475057241804585 6.934929693427299 0 0 0
883 1 5.910407260172545 10.222100901886359 4.582776792488342 0 0 0
884 1 5.9104091910671075 11.923283437954598 6.934929693427299 0 0 0
1083 1 8.856941824744698 10.222100901886359 4.582776792488342 0 0 0
1084 1 8.856943755639263 11.923283437954598 6.934929693427299 0 0 0
1103 1 7.3836772930746815 12.77387470573635 4.582776792488342 0 0 0
1104 1 7.383679223969254 14.475057241804585 6.934929693427299 0 0 0
1283 1 11.803476389316849 10.222100901886359 4.582776792488342 0 0 0
1284 1 11.803478320211422 11.923283437954598 6.934929693427299 0 0 0
1303 1 10.330211857646827 12.77387470573635 4.582776792488342 0 0 0
1304 1 10.330213788541405 14.475057241804585 6.934929693427299 0 0 0
1503 1 13.276746422218984 12.77387470573635 4.582776792488342 0 0 0
1504 1 13.27674835311356 14.475057241804585 6.934929693427299 0 0 0
1483 1 14.750010953889003 10.222100901886359 4.582776792488342 0 0 0
1484 1 14.750012884783562 11.923283437954598 6.934929693427299 0 0 0
1683 1 17.696545518461154 10.222100901886359 4.582776792488342 0 0 0
1684 1 17.696547449355716 11.923283437954598 6.934929693427299 0 0 0
1703 1 16.223280986791142 12.77387470573635 4.582776792488342 0 0 0
1704 1 16.223282917685705 14.475057241804585 6.934929693427299 0 0 0
1903 1 19.169815551363293 12.77387470573635 4.582776792488342 0 0 0
1904 1 19.16981748225785 14.475057241804585 6.934929693427299 0 0 0
1883 1 20.6430800830333 10.222100901886359 4.582776792488342 0 0 0
1884 1 20.643082013927863 11.923283437954598 6.934929693427299 0 0 0
143 1 19.16982105259542 17.877422313436334 4.582776792488342 -1 0 0
144 1 -10.295522662231518 19.578604849504583 6.934929693427299 0 0 0
123 1 20.643085584265425 15.325648509586351 4.582776792488342 -1 0 0
124 1 -8.822258130561508 17.026831045654582 6.934929693427299 0 0 0
323 1 -5.875725496883933 15.325648509586351 4.582776792488342 0 0 0
324 1 -5.875723565989355 17.026831045654582 6.934929693427299 0 0 0
343 1 -7.348990028553941 17.877422313436334 4.582776792488342 0 0 0
344 1 -7.34898809765937 19.578604849504583 6.934929693427299 0 0 0
523 1 -2.929190932311778 15.325648509586351 4.582776792488342 0 0 0
524 1 -2.9291890014172024 17.026831045654582 6.934929693427299 0 0 0
543 1 -4.402455463981788 17.877422313436334 4.582776792488342 0 0 0
544 1 -4.402453533087216 19.578604849504583 6.934929693427299 0 0 0
743 1 -1.4559208994096364 17.877422313436334 4.582776792488342 0 0 0
744 1 -1.4559189685150669 19.578604849504583 6.934929693427299 0 0 0
723 1 0.017343632260373207 15.325648509586351 4.582776792488342 0 0 0
724 1 0.01734556315494817 17.026831045654582 6.934929693427299 0 0 0
923 1 2.963878196832522 15.325648509586351 4.582776792488342 0 0 0
924 1 2.9638801277271005 17.026831045654582 6.934929693427299 0 0 0
943 1 1.490613665162516 17.877422313436334 4.582776792488342 0 0 0
944 1 1.4906155960570873 19.578604849504583 6.934929693427299 0 0 0
1143 1 4.437148229734663 17.877422313436334 4.582776792488342 0 0 0
1144 1 4.437150160629236 19.578604849504583 6.934929693427299 0 0 0
1123 1 5.910412761404671 15.325648509586351 4.582776792488342 0 0 0
1124 1 5.910414692299246 17.026831045654582 6.934929693427299 0 0 0
1323 1 8.856947325976817 15.325648509586351 4.582776792488342 0 0 0
1324 1 8.856949256871408 17.026831045654582 6.934929693427299 0 0 0
1343 1 7.383682794306824 17.877422313436334 4.582776792488342 0 0 0
1344 1 7.383684725201387 19.578604849504583 6.934929693427299 0 0 0
1523 1 11.803481890548971 15.325648509586351 4.582776792488342 0 0 0
1524 1 11.803483821443548 17.026831045654582 6.934929693427299 0 0 0
1543 1 10.33021735887897 17.877422313436334 4.582776792488342 0 0 0
1544 1 10.330219289773533 19.578604849504583 6.934929693427299 0 0 0
1743 1 13.276751923451114 17.877422313436334 4.582776792488342 0 0 0
1744 1 13.276753854345694 19.578604849504583 6.934929693427299 0 0 0
1723 1 14.750016455121118 15.325648509586351 4.582776792488342 0 0 0
1724 1 14.750018386015698 17.026831045654582 6.934929693427299 0 0 0
1923 1 17.696551019693263 15.325648509586351 4.582776792488342 0 0 0
1924 1 17.696552950587854 17.026831045654582 6.934929693427299 0 0 0
1943 1 16.223286488023273 17.877422313436334 4.582776792488342 0 0 0
1944 1 16.223288418917836 19.578604849504583 6.934929693427299 0 0 0
163 1 17.69655652092541 20.429196117286335 4.582776792488342 -1 0 0
164 1 -11.768787193901534 22.130378653354576 6.934929693427299 0 0 0
183 1 16.223291989255397 22.98096992113632 4.582776792488342 -1 0 0
184 1 -13.24205172557154 24.682152457204573 6.934929693427299 0 0 0
383 1 -10.295519091893958 22.98096992113632 4.582776792488342 0 0 0
384 1 -10.29551716099939 24.682152457204573 6.934929693427299 0 0 0
363 1 -8.82225456022395 20.429196117286335 4.582776792488342 0 0 0
364 1 -8.822252629329384 22.130378653354576 6.934929693427299 0 0 0
563 1 -5.875719995651801 20.429196117286335 4.582776792488342 0 0 0
564 1 -5.875718064757232 22.130378653354576 6.934929693427299 0 0 0
583 1 -7.3489845273218055 22.98096992113632 4.582776792488342 0 0 0
584 1 -7.348982596427238 24.682152457204573 6.934929693427299 0 0 0
763 1 -2.929185431079646 20.429196117286335 4.582776792488342 0 0 0
764 1 -2.9291835001850837 22.130378653354576 6.934929693427299 0 0 0
783 1 -4.402449962749658 22.98096992113632 4.582776792488342 0 0 0
784 1 -4.4024480318550845 24.682152457204573 6.934929693427299 0 0 0
983 1 -1.4559153981775035 22.98096992113632 4.582776792488342 0 0 0
984 1 -1.4559134672829375 24.682152457204573 6.934929693427299 0 0 0
963 1 0.017349133492504373 20.429196117286335 4.582776792488342 0 0 0
964 1 0.01735106438706868 22.130378653354576 6.934929693427299 0 0 0
1163 1 2.9638836980646515 20.429196117286335 4.582776792488342 0 0 0
1164 1 2.963885628959223 22.130378653354576 6.934929693427299 0 0 0
1183 1 1.4906191663946453 22.98096992113632 4.582776792488342 0 0 0
1184 1 1.4906210972892149 24.682152457204573 6.934929693427299 0 0 0
1383 1 4.437153730966798 22.98096992113632 4.582776792488342 0 0 0
1384 1 4.437155661861373 24.682152457204573 6.934929693427299 0 0 0
1363 1 5.910418262636806 20.429196117286335 4.582776792488342 0 0 0
1364 1 5.910420193531375 22.130378653354576 6.934929693427299 0 0 0
1563 1 8.856952827208955 20.429196117286335 4.582776792488342 0 0 0
1564 1 8.856954758103521 22.130378653354576 6.934929693427299 0 0 0
1583 1 7.383688295538948 22.98096992113632 4.582776792488342 0 0 0
1584 1 7.38369022643352 24.682152457204573 6.934929693427299 0 0 0
1763 1 11.803487391781102 20.429196117286335 4.582776792488342 0 0 0
1764 1 11.803489322675668 22.130378653354576 6.934929693427299 0 0 0
1783 1 10.330222860111098 22.98096992113632 4.582776792488342 0 0 0
1784 1 10.330224791005676 24.682152457204573 6.934929693427299 0 0 0
1983 1 13.276757424683245 22.98096992113632 4.582776792488342 0 0 0
1984 1 13.276759355577806 24.682152457204573 6.934929693427299 0 0 0
1963 1 14.750021956353246 20.429196117286335 4.582776792488342 0 0 0
1964 1 14.750023887247822 22.130378653354576 6.934929693427299 0 0 0
25 1 28.009408242615482 2.5667794903363785 9.287082594366256 -1 0 0
26 1 -1.4559354722114564 4.267962026404617 11.639235495305211 0 0 0
5 1 14.75002745758539 25.532743724986307 9.287082594366256 -1 -1 0
6 1 0.017329059458552582 1.716188222554624 11.639235495305211 0 0 0
205 1 -11.768783623563966 25.532743724986307 9.287082594366256 0 -1 0
206 1 2.963863624030702 1.716188222554624 11.639235495305211 0 0 0
225 1 1.4905971614661266 2.5667794903363785 9.287082594366256 0 0 0
226 1 1.4905990923606942 4.267962026404617 11.639235495305211 0 0 0
425 1 4.437131726038278 2.5667794903363785 9.287082594366256 0 0 0
426 1 4.437133656932844 4.267962026404617 11.639235495305211 0 0 0
405 1 -8.822249058991815 25.532743724986307 9.287082594366256 0 -1 0
406 1 5.9103981886028505 1.716188222554624 11.639235495305211 0 0 0
605 1 -5.875714494419664 25.532743724986307 9.287082594366256 0 -1 0
606 1 8.856932753175002 1.716188222554624 11.639235495305211 0 0 0
625 1 7.383666290610428 2.5667794903363785 9.287082594366256 0 0 0
626 1 7.383668221504995 4.267962026404617 11.639235495305211 0 0 0
805 1 -2.9291799298475127 25.532743724986307 9.287082594366256 0 -1 0
806 1 11.803467317747147 1.716188222554624 11.639235495305211 0 0 0
825 1 10.33020085518258 2.5667794903363785 9.287082594366256 0 0 0
826 1 10.330202786077146 4.267962026404617 11.639235495305211 0 0 0
1025 1 13.276735419754724 2.5667794903363785 9.287082594366256 0 0 0
1026 1 13.2767373506493 4.267962026404617 11.639235495305211 0 0 0
1005 1 0.017354634724639224 25.532743724986307 9.287082594366256 0 -1 0
1006 1 14.750001882319312 1.716188222554624 11.639235495305211 0 0 0
1205 1 2.9638891992967955 25.532743724986307 9.287082594366256 0 -1 0
1206 1 17.696536446891468 1.716188222554624 11.639235495305211 0 0 0
1225 1 16.223269984326883 2.5667794903363785 9.287082594366256 0 0 0
1226 1 16.223271915221456 4.267962026404617 11.639235495305211 0 0 0
1425 1 19.169804548899034 2.5667794903363785 9.287082594366256 0 0 0
1426 1 19.169806479793596 4.267962026404617 11.639235495305211 0 0 0
1405 1 5.9104237638689385 25.532743724986307 9.287082594366256 0 -1 0
1406 1 20.6430710114636 1.716188222554624 11.639235495305211 0 0 0
1605 1 8.856958328441085 25.532743724986307 9.287082594366256 0 -1 0
1606 1 23.589605576035755 1.716188222554624 11.639235495305211 0 0 0
1625 1 22.11633911347118 2.5667794903363785 9.287082594366256 0 0 0
1626 1 22.11634104436575 4.267962026404617 11.639235495305211 0 0 0
1805 1 11.803492893013239 25.532743724986307 9.287082594366256 0 -1 0
1806 1 26.536140140607905 1.716188222554624 11.639235495305211 0 0 0
1825 1 25.062873678043335 2.5667794903363785 9.287082594366256 0 0 0
1826 1 25.062875608937894 4.267962026404617 11.639235495305211 0 0 0
45 1 26.536143710945474 5.118553294186372 9.287082594366256 -1 0 0
46 1 -2.9292000038814683 6.819735830254608 11.639235495305211 0 0 0
65 1 25.06287917927546 7.6703270980363625 9.287082594366256 -1 0 0
66 1 -4.402464535551481 9.371509634104598 11.639235495305211 0 0 0
265 1 -1.4559319018738952 7.6703270980363625 9.287082594366256 0 0 0
266 1 -1.4559299709793336 9.371509634104598 11.639235495305211 0 0 0
245 1 0.017332629796116335 5.118553294186372 9.287082594366256 0 0 0
246 1 0.017334560690680196 6.819735830254608 11.639235495305211 0 0 0
445 1 2.9638671943682695 5.118553294186372 9.287082594366256 0 0 0
446 1 2.9638691252628298 6.819735830254608 11.639235495305211 0 0 0
465 1 1.4906026626982545 7.6703270980363625 9.287082594366256 0 0 0
466 1 1.490604593592817 9.371509634104598 11.639235495305211 0 0 0
665 1 4.437137227270408 7.6703270980363625 9.287082594366256 0 0 0
666 1 4.437139158164969 9.371509634104598 11.639235495305211 0 0 0
645 1 5.910401758940421 5.118553294186372 9.287082594366256 0 0 0
646 1 5.91040368983498 6.819735830254608 11.639235495305211 0 0 0
845 1 8.85693632351257 5.118553294186372 9.287082594366256 0 0 0
846 1 8.856938254407126 6.819735830254608 11.639235495305211 0 0 0
865 1 7.383671791842558 7.6703270980363625 9.287082594366256 0 0 0
866 1 7.383673722737122 9.371509634104598 11.639235495305211 0 0 0
1045 1 11.803470888084721 5.118553294186372 9.287082594366256 0 0 0
1046 1 11.80347281897928 6.819735830254608 11.639235495305211 0 0 0
1065 1 10.330206356414704 7.6703270980363625 9.287082594366256 0 0 0
1066 1 10.330208287309276 9.371509634104598 11.639235495305211 0 0 0
1265 1 13.276740920986862 7.6703270980363625 9.287082594366256 0 0 0
1266 1 13.27674285188142 9.371509634104598 11.639235495305211 0 0 0
1245 1 14.750005452656872 5.118553294186372 9.287082594366256 0 0 0
1246 1 14.750007383551429 6.819735830254608 11.639235495305211 0 0 0
1445 1 17.69654001722901 5.118553294186372 9.287082594366256 0 0 0
1446 1 17.696541948123592 6.819735830254608 11.639235495305211 0 0 0
1465 1 16.223275485559018 7.6703270980363625 9.287082594366256 0 0 0
1466 1 16.223277416453573 9.371509634104598 11.639235495305211 0 0 0
1665 1 19.169810050131158 7.6703270980363625 9.287082594366256 0 0 0
1666 1 19.169811981025727 9.371509634104598 11.639235495305211 0 0 0
1645 1 20.643074581801173 5.118553294186372 9.287082594366256 0 0 0
1646 1 20.64307651269574 6.819735830254608 11.639235495305211 0 0 0
1845 1 23.58960914637332 5.118553294186372 9.287082594366256 0 0 0
1846 1 23.58961107726788 6.819735830254608 11.639235495305211 0 0 0
1865 1 22.11634461470332 7.6703270980363625 9.287082594366256 0 0 0
1866 1 22.116346545597867 9.371509634104598 11.639235495305211 0 0 0
85 1 23.58961464760545 10.222100901886359 9.287082594366256 -1 0 0
86 1 -5.8757290672214895 11.923283437954598 11.639235495305211 0 0 0
105 1 22.116350115935436 12.77387470573635 9.287082594366256 -1 0 0
106 1 -7.3489935988915 14.475057241804585 11.639235495305211 0 0 0
285 1 -2.929196433543903 10.222100901886359 9.287082594366256 0 0 0
286 1 -2.9291945026493433 11.923283437954598 11.639235495305211 0 0 0
305 1 -4.402460965213919 12.77387470573635 9.287082594366256 0 0 0
306 1 -4.402459034319354 14.475057241804585 11.639235495305211 0 0 0
505 1 -1.4559264006417676 12.77387470573635 9.287082594366256 0 0 0
506 1 -1.4559244697471998 14.475057241804585 11.639235495305211 0 0 0
485 1 0.017338131028244837 10.222100901886359 9.287082594366256 0 0 0
486 1 0.01734006192281003 11.923283437954598 11.639235495305211 0 0 0
685 1 2.9638726956004002 10.222100901886359 9.287082594366256 0 0 0
686 1 2.963874626494961 11.923283437954598 11.639235495305211 0 0 0
705 1 1.4906081639303803 12.77387470573635 9.287082594366256 0 0 0
706 1 1.490610094824949 14.475057241804585 11.639235495305211 0 0 0
905 1 4.437142728502534 12.77387470573635 9.287082594366256 0 0 0
906 1 4.437144659397103 14.475057241804585 11.639235495305211 0 0 0
885 1 5.910407260172545 10.222100901886359 9.287082594366256 0 0 0
886 1 5.9104091910671075 11.923283437954598 11.639235495305211 0 0 0
1085 1 8.856941824744698 10.222100901886359 9.287082594366256 0 0 0
1086 1 8.856943755639263 11.923283437954598 11.639235495305211 0 0 0
1105 1 7.3836772930746815 12.77387470573635 9.287082594366256 0 0 0
1106 1 7.383679223969254 14.475057241804585 11.639235495305211 0 0 0
1285 1 11.803476389316849 10.222100901886359 9.287082594366256 0 0 0
1286 1 11.803478320211422 11.923283437954598 11.639235495305211 0 0 0
1305 1 10.330211857646827 12.77387470573635 9.287082594366256 0 0 0
1306 1 10.330213788541405 14.475057241804585 11.639235495305211 0 0 0
1505 1 13.276746422218984 12.77387470573635 9.287082594366256 0 0 0
1506 1 13.27674835311356 14.475057241804585 11.639235495305211 0 0 0
1485 1 14.750010953889003 10.222100901886359 9.287082594366256 0 0 0
1486 1 14.750012884783562 11.923283437954598 11.639235495305211 0 0 0
1685 1 17.696545518461154 10.222100901886359 9.287082594366256 0 0 0
1686 1 17.696547449355716 11.923283437954598 11.639235495305211 0 0 0
1705 1 16.223280986791142 12.77387470573635 9.287082594366256 0 0 0
1706 1 16.223282917685705 14.475057241804585 11.639235495305211 0 0 0
1905 1 19.169815551363293 12.77387470573635 9.287082594366256 0 0 0
1906 1 19.16981748225785 14.475057241804585 11.639235495305211 0 0 0
1885 1 20.6430800830333 10.222100901886359 9.287082594366256 0 0 0
1886 1 20.643082013927863 11.923283437954598 11.639235495305211 0 0 0
145 1 19.16982105259542 17.877422313436334 9.287082594366256 -1 0 0
146 1 -10.29552266223152 19.578604849504583 11.639235495305211 0 0 0
125 1 20.643085584265425 15.325648509586351 9.287082594366256 -1 0 0
126 1 -8.822258130561508 17.026831045654582 11.639235495305211 0 0 0
325 1 -5.875725496883934 15.325648509586351 9.287082594366256 0 0 0
326 1 -5.875723565989356 17.026831045654582 11.639235495305211 0 0 0
345 1 -7.34899002855394 17.877422313436334 9.287082594366256 0 0 0
346 1 -7.348988097659371 19.578604849504583 11.639235495305211 0 0 0
525 1 -2.929190932311777 15.325648509586351 9.287082594366256 0 0 0
526 1 -2.929189001417203 17.026831045654582 11.639235495305211 0 0 0
545 1 -4.402455463981788 17.877422313436334 9.287082594366256 0 0 0
546 1 -4.402453533087218 19.578604849504583 11.639235495305211 0 0 0
745 1 -1.4559208994096364 17.877422313436334 9.287082594366256 0 0 0
746 1 -1.4559189685150669 19.578604849504583 11.639235495305211 0 0 0
725 1 0.01734363226037334 15.325648509586351 9.287082594366256 0 0 0
726 1 0.017345563154948302 17.026831045654582 11.639235495305211 0 0 0
925 1 2.9638781968325225 15.325648509586351 9.287082594366256 0 0 0
926 1 2.963880127727101 17.026831045654582 11.639235495305211 0 0 0
945 1 1.490613665162516 17.877422313436334 9.287082594366256 0 0 0
946 1 1.4906155960570873 19.578604849504583 11.639235495305211 0 0 0
1145 1 4.437148229734663 17.877422313436334 9.287082594366256 0 0 0
1146 1 4.437150160629236 19.578604849504583 11.639235495305211 0 0 0
1125 1 5.910412761404671 15.325648509586351 9.287082594366256 0 0 0
1126 1 5.910414692299246 17.026831045654582 11.639235495305211 0 0 0
1325 1 8.856947325976817 15.325648509586351 9.287082594366256 0 0 0
1326 1 8.856949256871408 17.026831045654582 11.639235495305211 0 0 0
1345 1 7.383682794306824 17.877422313436334 9.287082594366256 0 0 0
1346 1 7.383684725201387 19.578604849504583 11.639235495305211 0 0 0
1525 1 11.803481890548971 15.325648509586351 9.287082594366256 0 0 0
1526 1 11.803483821443548 17.026831045654582 11.639235495305211 0 0 0
1545 1 10.33021735887897 17.877422313436334 9.287082594366256 0 0 0
1546 1 10.330219289773533 19.578604849504583 11.639235495305211 0 0 0
1745 1 13.276751923451114 17.877422313436334 9.287082594366256 0 0 0
1746 1 13.276753854345694 19.578604849504583 11.639235495305211 0 0 0
1725 1 14.750016455121118 15.325648509586351 9.287082594366256 0 0 0
1726 1 14.750018386015698 17.026831045654582 11.639235495305211 0 0 0
1925 1 17.696551019693263 15.325648509586351 9.287082594366256 0 0 0
1926 1 17.696552950587854 17.026831045654582 11.639235495305211 0 0 0
1945 1 16.223286488023273 17.877422313436334 9.287082594366256 0 0 0
1946 1 16.223288418917836 19.578604849504583 11.639235495305211 0 0 0
165 1 17.69655652092541 20.429196117286335 9.287082594366256 -1 0 0
166 1 -11.768787193901534 22.130378653354576 11.639235495305211 0 0 0
185 1 16.223291989255397 22.98096992113632 9.287082594366256 -1 0 0
186 1 -13.242051725571542 24.682152457204573 11.639235495305211 0 0 0
385 1 -10.29551909189396 22.98096992113632 9.287082594366256 0 0 0
386 1 -10.295517160999392 24.682152457204573 11.639235495305211 0 0 0
365 1 -8.822254560223952 20.429196117286335 9.287082594366256 0 0 0
366 1 -8.822252629329387 22.130378653354576 11.639235495305211 0 0 0
565 1 -5.875719995651801 20.429196117286335 9.287082594366256 0 0 0
566 1 -5.8757180647572325 22.130378653354576 11.639235495305211 0 0 0
585 1 -7.3489845273218055 22.98096992113632 9.287082594366256 0 0 0
586 1 -7.3489825964272395 24.682152457204573 11.639235495305211 0 0 0
765 1 -2.929185431079644 20.429196117286335 9.287082594366256 0 0 0
766 1 -2.9291835001850832 22.130378653354576 11.639235495305211 0 0 0
785 1 -4.402449962749658 22.98096992113632 9.287082594366256 0 0 0
786 1 -4.4024480318550845 24.682152457204573 11.639235495305211 0 0 0
985 1 -1.455915398177507 22.98096992113632 9.287082594366256 0 0 0
986 1 -1.4559134672829375 24.682152457204573 11.639235495305211 0 0 0
965 1 0.017349133492504505 20.429196117286335 9.287082594366256 0 0 0
966 1 0.01735106438706881 22.130378653354576 11.639235495305211 0 0 0
1165 1 2.9638836980646555 20.429196117286335 9.287082594366256 0 0 0
1166 1 2.9638856289592233 22.130378653354576 11.639235495305211 0 0 0
1185 1 1.4906191663946453 22.98096992113632 9.287082594366256 0 0 0
1186 1 1.4906210972892149 24.682152457204573 11.639235495305211 0 0 0
1385 1 4.437153730966798 22.98096992113632 9.287082594366256 0 0 0
1386 1 4.437155661861373 24.682152457204573 11.639235495305211 0 0 0
1365 1 5.910418262636806 20.429196117286335 9.287082594366256 0 0 0
1366 1 5.910420193531375 22.130378653354576 11.639235495305211 0 0 0
1565 1 8.856952827208955 20.429196117286335 9.287082594366256 0 0 0
1566 1 8.856954758103521 22.130378653354576 11.639235495305211 0 0 0
1585 1 7.383688295538948 22.98096992113632 9.287082594366256 0 0 0
1586 1 7.38369022643352 24.682152457204573 11.639235495305211 0 0 0
1765 1 11.803487391781102 20.429196117286335 9.287082594366256 0 0 0
1766 1 11.803489322675668 22.130378653354576 11.639235495305211 0 0 0
1785 1 10.330222860111098 22.98096992113632 9.287082594366256 0 0 0
1786 1 10.330224791005676 24.682152457204573 11.639235495305211 0 0 0
1985 1 13.276757424683245 22.98096992113632 9.287082594366256 0 0 0
1986 1 13.276759355577806 24.682152457204573 11.639235495305211 0 0 0
1965 1 14.750021956353246 20.429196117286335 9.287082594366256 0 0 0
1966 1 14.750023887247822 22.130378653354576 11.639235495305211 0 0 0
27 1 28.009408242615482 2.5667794903363785 13.99138839624417 -1 0 0
28 1 -1.4559354722114575 4.267962026404618 16.343541297183123 0 0 0
7 1 14.75002745758539 25.532743724986307 13.99138839624417 -1 -1 0
8 1 0.017329059458552825 1.716188222554623 16.343541297183123 0 0 0
207 1 -11.768783623563966 25.532743724986307 13.99138839624417 0 -1 0
208 1 2.963863624030703 1.716188222554623 16.343541297183123 0 0 0
227 1 1.4905971614661275 2.5667794903363785 13.99138839624417 0 0 0
228 1 1.4905990923606918 4.267962026404618 16.343541297183123 0 0 0
427 1 4.4371317260382765 2.5667794903363785 13.99138839624417 0 0 0
428 1 4.437133656932845 4.267962026404618 16.343541297183123 0 0 0
407 1 -8.822249058991819 25.532743724986307 13.99138839624417 0 -1 0
408 1 5.910398188602855 1.716188222554623 16.343541297183123 0 0 0
607 1 -5.875714494419664 25.532743724986307 13.99138839624417 0 -1 0
608 1 8.856932753174998 1.716188222554623 16.343541297183123 0 0 0
627 1 7.383666290610428 2.5667794903363785 13.99138839624417 0 0 0
628 1 7.383668221504999 4.267962026404618 16.343541297183123 0 0 0
807 1 -2.9291799298475127 25.532743724986307 13.99138839624417 0 -1 0
808 1 11.803467317747149 1.716188222554623 16.343541297183123 0 0 0
827 1 10.330200855182582 2.5667794903363785 13.99138839624417 0 0 0
828 1 10.330202786077145 4.267962026404618 16.343541297183123 0 0 0
1027 1 13.276735419754726 2.5667794903363785 13.99138839624417 0 0 0
1028 1 13.276737350649297 4.267962026404618 16.343541297183123 0 0 0
1007 1 0.017354634724639356 25.532743724986307 13.99138839624417 0 -1 0
1008 1 14.750001882319308 1.716188222554623 16.343541297183123 0 0 0
1207 1 2.9638891992967955 25.532743724986307 13.99138839624417 0 -1 0
1208 1 17.696536446891464 1.716188222554623 16.343541297183123 0 0 0
1227 1 16.223269984326883 2.5667794903363785 13.99138839624417 0 0 0
1228 1 16.223271915221456 4.267962026404618 16.343541297183123 0 0 0
1427 1 19.169804548899034 2.5667794903363785 13.99138839624417 0 0 0
1428 1 19.169806479793596 4.267962026404618 16.343541297183123 0 0 0
1407 1 5.9104237638689385 25.532743724986307 13.99138839624417 0 -1 0
1408 1 20.643071011463597 1.716188222554623 16.343541297183123 0 0 0
1607 1 8.856958328441085 25.532743724986307 13.99138839624417 0 -1 0
1608 1 23.58960557603575 1.716188222554623 16.343541297183123 0 0 0
1627 1 22.11633911347118 2.5667794903363785 13.99138839624417 0 0 0
1628 1 22.11634104436575 4.267962026404618 16.343541297183123 0 0 0
1807 1 11.803492893013239 25.532743724986307 13.99138839624417 0 -1 0
1808 1 26.536140140607902 1.716188222554623 16.343541297183123 0 0 0
1827 1 25.062873678043335 2.5667794903363785 13.99138839624417 0 0 0
1828 1 25.062875608937894 4.267962026404618 16.343541297183123 0 0 0
47 1 26.53614371094547 5.118553294186375 13.99138839624417 -1 0 0
48 1 -2.929200003881468 6.819735830254608 16.343541297183123 0 0 0
67 1 25.06287917927546 7.6703270980363625 13.99138839624417 -1 0 0
68 1 -4.402464535551479 9.371509634104598 16.343541297183123 0 0 0
267 1 -1.4559319018738945 7.6703270980363625 13.99138839624417 0 0 0
268 1 -1.4559299709793294 9.371509634104598 16.343541297183123 0 0 0
247 1 0.01733262979611469 5.118553294186375 13.99138839624417 0 0 0
248 1 0.017334560690682548 6.819735830254608 16.343541297183123 0 0 0
447 1 2.9638671943682646 5.118553294186375 13.99138839624417 0 0 0
448 1 2.9638691252628333 6.819735830254608 16.343541297183123 0 0 0
467 1 1.4906026626982538 7.6703270980363625 13.99138839624417 0 0 0
468 1 1.4906045935928198 9.371509634104598 16.343541297183123 0 0 0
667 1 4.437137227270408 7.6703270980363625 13.99138839624417 0 0 0
668 1 4.437139158164972 9.371509634104598 16.343541297183123 0 0 0
647 1 5.910401758940415 5.118553294186375 13.99138839624417 0 0 0
648 1 5.910403689834988 6.819735830254608 16.343541297183123 0 0 0
847 1 8.856936323512564 5.118553294186375 13.99138839624417 0 0 0
848 1 8.856938254407137 6.819735830254608 16.343541297183123 0 0 0
867 1 7.383671791842558 7.6703270980363625 13.99138839624417 0 0 0
868 1 7.383673722737124 9.371509634104598 16.343541297183123 0 0 0
1047 1 11.803470888084714 5.118553294186375 13.99138839624417 0 0 0
1048 1 11.803472818979277 6.819735830254608 16.343541297183123 0 0 0
1067 1 10.330206356414704 7.6703270980363625 13.99138839624417 0 0 0
1068 1 10.330208287309276 9.371509634104598 16.343541297183123 0 0 0
1267 1 13.276740920986862 7.6703270980363625 13.99138839624417 0 0 0
1268 1 13.27674285188142 9.371509634104598 16.343541297183123 0 0 0
1247 1 14.750005452656872 5.118553294186375 13.99138839624417 0 0 0
1248 1 14.750007383551436 6.819735830254608 16.343541297183123 0 0 0
1447 1 17.696540017229022 5.118553294186375 13.99138839624417 0 0 0
1448 1 17.696541948123592 6.819735830254608 16.343541297183123 0 0 0
1467 1 16.223275485559018 7.6703270980363625 13.99138839624417 0 0 0
1468 1 16.223277416453573 9.371509634104598 16.343541297183123 0 0 0
1667 1 19.169810050131158 7.6703270980363625 13.99138839624417 0 0 0
1668 1 19.169811981025727 9.371509634104598 16.343541297183123 0 0 0
1647 1 20.64307458180117 5.118553294186375 13.99138839624417 0 0 0
1648 1 20.64307651269574 6.819735830254608 16.343541297183123 0 0 0
1847 1 23.589609146373327 5.118553294186375 13.99138839624417 0 0 0
1848 1 23.589611077267886 6.819735830254608 16.343541297183123 0 0 0
1867 1 22.11634461470332 7.6703270980363625 13.99138839624417 0 0 0
1868 1 22.116346545597867 9.371509634104598 16.343541297183123 0 0 0
87 1 23.58961464760545 10.222100901886359 13.99138839624417 -1 0 0
88 1 -5.875729067221488 11.923283437954598 16.343541297183123 0 0 0
107 1 22.116350115935436 12.77387470573635 13.99138839624417 -1 0 0
108 1 -7.348993598891495 14.475057241804585 16.343541297183123 0 0 0
287 1 -2.929196433543903 10.222100901886359 13.99138839624417 0 0 0
288 1 -2.9291945026493393 11.923283437954598 16.343541297183123 0 0 0
307 1 -4.402460965213919 12.77387470573635 13.99138839624417 0 0 0
308 1 -4.402459034319348 14.475057241804585 16.343541297183123 0 0 0
507 1 -1.4559264006417683 12.77387470573635 13.99138839624417 0 0 0
508 1 -1.4559244697471978 14.475057241804585 16.343541297183123 0 0 0
487 1 0.01733813102824408 10.222100901886359 13.99138839624417 0 0 0
488 1 0.01734006192281194 11.923283437954598 16.343541297183123 0 0 0
687 1 2.9638726956004002 10.222100901886359 13.99138839624417 0 0 0
688 1 2.963874626494961 11.923283437954598 16.343541297183123 0 0 0
707 1 1.4906081639303805 12.77387470573635 13.99138839624417 0 0 0
708 1 1.4906100948249492 14.475057241804585 16.343541297183123 0 0 0
907 1 4.437142728502534 12.77387470573635 13.99138839624417 0 0 0
908 1 4.437144659397106 14.475057241804585 16.343541297183123 0 0 0
887 1 5.910407260172545 10.222100901886359 13.99138839624417 0 0 0
888 1 5.91040919106711 11.923283437954598 16.343541297183123 0 0 0
1087 1 8.856941824744698 10.222100901886359 13.99138839624417 0 0 0
1088 1 8.856943755639263 11.923283437954598 16.343541297183123 0 0 0
1107 1 7.3836772930746815 12.77387470573635 13.99138839624417 0 0 0
1108 1 7.383679223969255 14.475057241804585 16.343541297183123 0 0 0
1287 1 11.803476389316849 10.222100901886359 13.99138839624417 0 0 0
1288 1 11.803478320211422 11.923283437954598 16.343541297183123 0 0 0
1307 1 10.330211857646827 12.77387470573635 13.99138839624417 0 0 0
1308 1 10.330213788541405 14.475057241804585 16.343541297183123 0 0 0
1507 1 13.276746422218984 12.77387470573635 13.99138839624417 0 0 0
1508 1 13.27674835311356 14.475057241804585 16.343541297183123 0 0 0
1487 1 14.750010953889003 10.222100901886359 13.99138839624417 0 0 0
1488 1 14.750012884783562 11.923283437954598 16.343541297183123 0 0 0
1687 1 17.696545518461154 10.222100901886359 13.99138839624417 0 0 0
1688 1 17.696547449355716 11.923283437954598 16.343541297183123 0 0 0
1707 1 16.223280986791142 12.77387470573635 13.99138839624417 0 0 0
1708 1 16.223282917685705 14.475057241804585 16.343541297183123 0 0 0
1907 1 19.169815551363293 12.77387470573635 13.99138839624417 0 0 0
1908 1 19.16981748225785 14.475057241804585 16.343541297183123 0 0 0
1887 1 20.6430800830333 10.222100901886359 13.99138839624417 0 0 0
1888 1 20.643082013927863 11.923283437954598 16.343541297183123 0 0 0
147 1 19.16982105259542 17.877422313436334 13.99138839624417 -1 0 0
148 1 -10.29552266223152 19.578604849504583 16.343541297183123 0 0 0
127 1 20.643085584265425 15.325648509586351 13.99138839624417 -1 0 0
128 1 -8.82225813056151 17.026831045654582 16.343541297183123 0 0 0
327 1 -5.875725496883934 15.325648509586351 13.99138839624417 0 0 0
328 1 -5.87572356598935 17.026831045654582 16.343541297183123 0 0 0
347 1 -7.34899002855394 17.877422313436334 13.99138839624417 0 0 0
348 1 -7.348988097659367 19.578604849504583 16.343541297183123 0 0 0
527 1 -2.9291909323117786 15.325648509586351 13.99138839624417 0 0 0
528 1 -2.929189001417203 17.026831045654582 16.343541297183123 0 0 0
547 1 -4.402455463981789 17.877422313436334 13.99138839624417 0 0 0
548 1 -4.402453533087214 19.578604849504583 16.343541297183123 0 0 0
747 1 -1.4559208994096344 17.877422313436334 13.99138839624417 0 0 0
748 1 -1.4559189685150666 19.578604849504583 16.343541297183123 0 0 0
727 1 0.01734363226037347 15.325648509586351 13.99138839624417 0 0 0
728 1 0.017345563154948434 17.026831045654582 16.343541297183123 0 0 0
927 1 2.9638781968325225 15.325648509586351 13.99138839624417 0 0 0
928 1 2.963880127727101 17.026831045654582 16.343541297183123 0 0 0
947 1 1.4906136651625161 17.877422313436334 13.99138839624417 0 0 0
948 1 1.4906155960570857 19.578604849504583 16.343541297183123 0 0 0
1147 1 4.437148229734663 17.877422313436334 13.99138839624417 0 0 0
1148 1 4.437150160629237 19.578604849504583 16.343541297183123 0 0 0
1127 1 5.910412761404671 15.325648509586351 13.99138839624417 0 0 0
1128 1 5.910414692299247 17.026831045654582 16.343541297183123 0 0 0
1327 1 8.856947325976817 15.325648509586351 13.99138839624417 0 0 0
1328 1 8.856949256871408 17.026831045654582 16.343541297183123 0 0 0
1347 1 7.383682794306824 17.877422313436334 13.99138839624417 0 0 0
1348 1 7.383684725201395 19.578604849504583 16.343541297183123 0 0 0
1527 1 11.803481890548971 15.325648509586351 13.99138839624417 0 0 0
1528 1 11.803483821443548 17.026831045654582 16.343541297183123 0 0 0
1547 1 10.33021735887897 17.877422313436334 13.99138839624417 0 0 0
1548 1 10.330219289773533 19.578604849504583 16.343541297183123 0 0 0
1747 1 13.276751923451114 17.877422313436334 13.99138839624417 0 0 0
1748 1 13.276753854345694 19.578604849504583 16.343541297183123 0 0 0
1727 1 14.750016455121118 15.325648509586351 13.99138839624417 0 0 0
1728 1 14.750018386015698 17.026831045654582 16.343541297183123 0 0 0
1927 1 17.696551019693263 15.325648509586351 13.99138839624417 0 0 0
1928 1 17.696552950587854 17.026831045654582 16.343541297183123 0 0 0
1947 1 16.223286488023273 17.877422313436334 13.99138839624417 0 0 0
1948 1 16.223288418917836 19.578604849504583 16.343541297183123 0 0 0
167 1 17.69655652092541 20.429196117286335 13.99138839624417 -1 0 0
168 1 -11.768787193901536 22.130378653354576 16.343541297183123 0 0 0
187 1 16.223291989255397 22.98096992113632 13.99138839624417 -1 0 0
188 1 -13.242051725571542 24.682152457204573 16.343541297183123 0 0 0
387 1 -10.29551909189396 22.98096992113632 13.99138839624417 0 0 0
388 1 -10.295517160999392 24.682152457204573 16.343541297183123 0 0 0
367 1 -8.822254560223952 20.429196117286335 13.99138839624417 0 0 0
368 1 -8.822252629329387 22.130378653354576 16.343541297183123 0 0 0
567 1 -5.875719995651802 20.429196117286335 13.99138839624417 0 0 0
568 1 -5.875718064757231 22.130378653354576 16.343541297183123 0 0 0
587 1 -7.348984527321806 22.98096992113632 13.99138839624417 0 0 0
588 1 -7.3489825964272315 24.682152457204573 16.343541297183123 0 0 0
767 1 -2.929185431079644 20.429196117286335 13.99138839624417 0 0 0
768 1 -2.9291835001850832 22.130378653354576 16.343541297183123 0 0 0
787 1 -4.402449962749658 22.98096992113632 13.99138839624417 0 0 0
788 1 -4.40244803185508 24.682152457204573 16.343541297183123 0 0 0
987 1 -1.455915398177505 22.98096992113632 13.99138839624417 0 0 0
988 1 -1.4559134672829355 24.682152457204573 16.343541297183123 0 0 0
967 1 0.017349133492504637 20.429196117286335 13.99138839624417 0 0 0
968 1 0.017351064387068942 22.130378653354576 16.343541297183123 0 0 0
1167 1 2.9638836980646555 20.429196117286335 13.99138839624417 0 0 0
1168 1 2.9638856289592233 22.130378653354576 16.343541297183123 0 0 0
1187 1 1.4906191663946455 22.98096992113632 13.99138839624417 0 0 0
1188 1 1.490621097289215 24.682152457204573 16.343541297183123 0 0 0
1387 1 4.437153730966798 22.98096992113632 13.99138839624417 0 0 0
1388 1 4.437155661861377 24.682152457204573 16.343541297183123 0 0 0
1367 1 5.910418262636806 20.429196117286335 13.99138839624417 0 0 0
1368 1 5.910420193531376 22.130378653354576 16.343541297183123 0 0 0
1567 1 8.856952827208955 20.429196117286335 13.99138839624417 0 0 0
1568 1 8.856954758103521 22.130378653354576 16.343541297183123 0 0 0
1587 1 7.383688295538948 22.98096992113632 13.99138839624417 0 0 0
1588 1 7.383690226433524 24.682152457204573 16.343541297183123 0 0 0
1767 1 11.803487391781102 20.429196117286335 13.99138839624417 0 0 0
1768 1 11.803489322675668 22.130378653354576 16.343541297183123 0 0 0
1787 1 10.330222860111098 22.98096992113632 13.99138839624417 0 0 0
1788 1 10.330224791005676 24.682152457204573 16.343541297183123 0 0 0
1987 1 13.276757424683245 22.98096992113632 13.99138839624417 0 0 0
1988 1 13.276759355577806 24.682152457204573 16.343541297183123 0 0 0
1967 1 14.750021956353246 20.429196117286335 13.99138839624417 0 0 0
1968 1 14.750023887247822 22.130378653354576 16.343541297183123 0 0 0
29 1 28.009408242615482 2.566779490336379 18.695694198122084 -1 0 0
30 1 -1.4559354722114564 4.267962026404615 21.04784709906104 0 0 0
9 1 14.75002745758539 25.532743724986307 18.695694198122084 -1 -1 0
10 1 0.017329059458552846 1.7161882225546239 21.04784709906104 0 0 0
209 1 -11.768783623563966 25.532743724986307 18.695694198122084 0 -1 0
210 1 2.963863624030702 1.7161882225546239 21.04784709906104 0 0 0
229 1 1.4905971614661264 2.566779490336379 18.695694198122084 0 0 0
230 1 1.4905990923606938 4.267962026404615 21.04784709906104 0 0 0
429 1 4.437131726038281 2.566779490336379 18.695694198122084 0 0 0
430 1 4.437133656932847 4.267962026404615 21.04784709906104 0 0 0
409 1 -8.822249058991815 25.532743724986307 18.695694198122084 0 -1 0
410 1 5.910398188602859 1.7161882225546239 21.04784709906104 0 0 0
609 1 -5.875714494419663 25.532743724986307 18.695694198122084 0 -1 0
610 1 8.856932753174998 1.7161882225546239 21.04784709906104 0 0 0
629 1 7.383666290610431 2.566779490336379 18.695694198122084 0 0 0
630 1 7.383668221505001 4.267962026404615 21.04784709906104 0 0 0
809 1 -2.9291799298475127 25.532743724986307 18.695694198122084 0 -1 0
810 1 11.803467317747147 1.7161882225546239 21.04784709906104 0 0 0
829 1 10.33020085518258 2.566779490336379 18.695694198122084 0 0 0
830 1 10.330202786077146 4.267962026404615 21.04784709906104 0 0 0
1029 1 13.276735419754724 2.566779490336379 18.695694198122084 0 0 0
1030 1 13.276737350649299 4.267962026404615 21.04784709906104 0 0 0
1009 1 0.017354634724639488 25.532743724986307 18.695694198122084 0 -1 0
1010 1 14.750001882319305 1.7161882225546239 21.04784709906104 0 0 0
1209 1 2.9638891992967955 25.532743724986307 18.695694198122084 0 -1 0
1210 1 17.69653644689147 1.7161882225546239 21.04784709906104 0 0 0
1229 1 16.223269984326883 2.566779490336379 18.695694198122084 0 0 0
1230 1 16.223271915221456 4.267962026404615 21.04784709906104 0 0 0
1429 1 19.169804548899034 2.566779490336379 18.695694198122084 0 0 0
1430 1 19.169806479793593 4.267962026404615 21.04784709906104 0 0 0
1409 1 5.910423763868939 25.532743724986307 18.695694198122084 0 -1 0
1410 1 20.643071011463604 1.7161882225546239 21.04784709906104 0 0 0
1609 1 8.856958328441085 25.532743724986307 18.695694198122084 0 -1 0
1610 1 23.58960557603576 1.7161882225546239 21.04784709906104 0 0 0
1629 1 22.11633911347118 2.566779490336379 18.695694198122084 0 0 0
1630 1 22.11634104436575 4.267962026404615 21.04784709906104 0 0 0
1809 1 11.803492893013239 25.532743724986307 18.695694198122084 0 -1 0
1810 1 26.536140140607905 1.7161882225546239 21.04784709906104 0 0 0
1829 1 25.062873678043335 2.566779490336379 18.695694198122084 0 0 0
1830 1 25.062875608937894 4.267962026404615 21.04784709906104 0 0 0
49 1 26.536143710945474 5.118553294186372 18.695694198122084 -1 0 0
50 1 -2.929200003881468 6.819735830254605 21.04784709906104 0 0 0
69 1 25.06287917927546 7.6703270980363625 18.695694198122084 -1 0 0
70 1 -4.402464535551479 9.371509634104598 21.04784709906104 0 0 0
269 1 -1.4559319018738972 7.6703270980363625 18.695694198122084 0 0 0
270 1 -1.455929970979331 9.371509634104598 21.04784709906104 0 0 0
249 1 0.017332629796114822 5.118553294186372 18.695694198122084 0 0 0
250 1 0.017334560690685345 6.819735830254605 21.04784709906104 0 0 0
449 1 2.9638671943682686 5.118553294186372 18.695694198122084 0 0 0
450 1 2.9638691252628333 6.819735830254605 21.04784709906104 0 0 0
469 1 1.4906026626982556 7.6703270980363625 18.695694198122084 0 0 0
470 1 1.49060459359282 9.371509634104598 21.04784709906104 0 0 0
669 1 4.437137227270405 7.6703270980363625 18.695694198122084 0 0 0
670 1 4.437139158164972 9.371509634104598 21.04784709906104 0 0 0
649 1 5.910401758940418 5.118553294186372 18.695694198122084 0 0 0
650 1 5.910403689834984 6.819735830254605 21.04784709906104 0 0 0
849 1 8.856936323512567 5.118553294186372 18.695694198122084 0 0 0
850 1 8.856938254407131 6.819735830254605 21.04784709906104 0 0 0
869 1 7.383671791842556 7.6703270980363625 18.695694198122084 0 0 0
870 1 7.383673722737124 9.371509634104598 21.04784709906104 0 0 0
1049 1 11.803470888084718 5.118553294186372 18.695694198122084 0 0 0
1050 1 11.803472818979278 6.819735830254605 21.04784709906104 0 0 0
1069 1 10.330206356414704 7.6703270980363625 18.695694198122084 0 0 0
1070 1 10.330208287309276 9.371509634104598 21.04784709906104 0 0 0
1269 1 13.276740920986862 7.6703270980363625 18.695694198122084 0 0 0
1270 1 13.27674285188142 9.371509634104598 21.04784709906104 0 0 0
1249 1 14.750005452656861 5.118553294186372 18.695694198122084 0 0 0
1250 1 14.75000738355143 6.819735830254605 21.04784709906104 0 0 0
1449 1 17.69654001722902 5.118553294186372 18.695694198122084 0 0 0
1450 1 17.696541948123595 6.819735830254605 21.04784709906104 0 0 0
1469 1 16.223275485559018 7.6703270980363625 18.695694198122084 0 0 0
1470 1 16.223277416453573 9.371509634104598 21.04784709906104 0 0 0
1669 1 19.169810050131158 7.6703270980363625 18.695694198122084 0 0 0
1670 1 19.169811981025727 9.371509634104598 21.04784709906104 0 0 0
1649 1 20.643074581801173 5.118553294186372 18.695694198122084 0 0 0
1650 1 20.643076512695743 6.819735830254605 21.04784709906104 0 0 0
1849 1 23.589609146373313 5.118553294186372 18.695694198122084 0 0 0
1850 1 23.58961107726789 6.819735830254605 21.04784709906104 0 0 0
1869 1 22.116344614703312 7.6703270980363625 18.695694198122084 0 0 0
1870 1 22.116346545597867 9.371509634104598 21.04784709906104 0 0 0
89 1 23.589614647605455 10.222100901886359 18.695694198122084 -1 0 0
90 1 -5.875729067221486 11.923283437954598 21.04784709906104 0 0 0
109 1 22.11635011593544 12.77387470573635 18.695694198122084 -1 0 0
110 1 -7.348993598891495 14.475057241804585 21.04784709906104 0 0 0
289 1 -2.929196433543904 10.222100901886359 18.695694198122084 0 0 0
290 1 -2.9291945026493393 11.923283437954598 21.04784709906104 0 0 0
309 1 -4.402460965213917 12.77387470573635 18.695694198122084 0 0 0
310 1 -4.402459034319348 14.475057241804585 21.04784709906104 0 0 0
509 1 -1.4559264006417665 12.77387470573635 18.695694198122084 0 0 0
510 1 -1.4559244697471958 14.475057241804585 21.04784709906104 0 0 0
489 1 0.017338131028246877 10.222100901886359 18.695694198122084 0 0 0
490 1 0.01734006192281296 11.923283437954598 21.04784709906104 0 0 0
689 1 2.9638726956004002 10.222100901886359 18.695694198122084 0 0 0
690 1 2.963874626494961 11.923283437954598 21.04784709906104 0 0 0
709 1 1.4906081639303805 12.77387470573635 18.695694198122084 0 0 0
710 1 1.4906100948249494 14.475057241804585 21.04784709906104 0 0 0
909 1 4.437142728502537 12.77387470573635 18.695694198122084 0 0 0
910 1 4.437144659397106 14.475057241804585 21.04784709906104 0 0 0
889 1 5.910407260172548 10.222100901886359 18.695694198122084 0 0 0
890 1 5.91040919106711 11.923283437954598 21.04784709906104 0 0 0
1089 1 8.856941824744698 10.222100901886359 18.695694198122084 0 0 0
1090 1 8.856943755639263 11.923283437954598 21.04784709906104 0 0 0
1109 1 7.383677293074682 12.77387470573635 18.695694198122084 0 0 0
1110 1 7.383679223969255 14.475057241804585 21.04784709906104 0 0 0
1289 1 11.803476389316849 10.222100901886359 18.695694198122084 0 0 0
1290 1 11.803478320211422 11.923283437954598 21.04784709906104 0 0 0
1309 1 10.330211857646827 12.77387470573635 18.695694198122084 0 0 0
1310 1 10.330213788541405 14.475057241804585 21.04784709906104 0 0 0
1509 1 13.276746422218984 12.77387470573635 18.695694198122084 0 0 0
1510 1 13.27674835311356 14.475057241804585 21.04784709906104 0 0 0
1489 1 14.750010953889003 10.222100901886359 18.695694198122084 0 0 0
1490 1 14.750012884783562 11.923283437954598 21.04784709906104 0 0 0
1689 1 17.696545518461154 10.222100901886359 18.695694198122084 0 0 0
1690 1 17.696547449355716 11.923283437954598 21.04784709906104 0 0 0
1709 1 16.223280986791142 12.77387470573635 18.695694198122084 0 0 0
1710 1 16.223282917685705 14.475057241804585 21.04784709906104 0 0 0
1909 1 19.169815551363293 12.77387470573635 18.695694198122084 0 0 0
1910 1 19.16981748225785 14.475057241804585 21.04784709906104 0 0 0
1889 1 20.6430800830333 10.222100901886359 18.695694198122084 0 0 0
1890 1 20.643082013927863 11.923283437954598 21.04784709906104 0 0 0
149 1 19.16982105259542 17.877422313436334 18.695694198122084 -1 0 0
150 1 -10.29552266223152 19.578604849504583 21.04784709906104 0 0 0
129 1 20.64308558426543 15.325648509586351 18.695694198122084 -1 0 0
130 1 -8.82225813056151 17.026831045654582 21.04784709906104 0 0 0
329 1 -5.8757254968839305 15.325648509586351 18.695694198122084 0 0 0
330 1 -5.87572356598935 17.026831045654582 21.04784709906104 0 0 0
349 1 -7.3489900285539385 17.877422313436334 18.695694198122084 0 0 0
350 1 -7.3489880976593644 19.578604849504583 21.04784709906104 0 0 0
529 1 -2.9291909323117777 15.325648509586351 18.695694198122084 0 0 0
530 1 -2.9291890014172 17.026831045654582 21.04784709906104 0 0 0
549 1 -4.4024554639817834 17.877422313436334 18.695694198122084 0 0 0
550 1 -4.402453533087213 19.578604849504583 21.04784709906104 0 0 0
749 1 -1.4559208994096344 17.877422313436334 18.695694198122084 0 0 0
750 1 -1.4559189685150646 19.578604849504583 21.04784709906104 0 0 0
729 1 0.017343632260373602 15.325648509586351 18.695694198122084 0 0 0
730 1 0.017345563154950342 17.026831045654582 21.04784709906104 0 0 0
929 1 2.9638781968325225 15.325648509586351 18.695694198122084 0 0 0
930 1 2.963880127727101 17.026831045654582 21.04784709906104 0 0 0
949 1 1.4906136651625126 17.877422313436334 18.695694198122084 0 0 0
950 1 1.490615596057086 19.578604849504583 21.04784709906104 0 0 0
1149 1 4.437148229734667 17.877422313436334 18.695694198122084 0 0 0
1150 1 4.437150160629237 19.578604849504583 21.04784709906104 0 0 0
1129 1 5.910412761404672 15.325648509586351 18.695694198122084 0 0 0
1130 1 5.910414692299247 17.026831045654582 21.04784709906104 0 0 0
1329 1 8.856947325976817 15.325648509586351 18.695694198122084 0 0 0
1330 1 8.856949256871408 17.026831045654582 21.04784709906104 0 0 0
1349 1 7.383682794306829 17.877422313436334 18.695694198122084 0 0 0
1350 1 7.383684725201395 19.578604849504583 21.04784709906104 0 0 0
1529 1 11.803481890548971 15.325648509586351 18.695694198122084 0 0 0
1530 1 11.803483821443548 17.026831045654582 21.04784709906104 0 0 0
1549 1 10.33021735887897 17.877422313436334 18.695694198122084 0 0 0
1550 1 10.330219289773533 19.578604849504583 21.04784709906104 0 0 0
1749 1 13.276751923451114 17.877422313436334 18.695694198122084 0 0 0
1750 1 13.276753854345694 19.578604849504583 21.04784709906104 0 0 0
1729 1 14.750016455121118 15.325648509586351 18.695694198122084 0 0 0
1730 1 14.750018386015698 17.026831045654582 21.04784709906104 0 0 0
1929 1 17.696551019693263 15.325648509586351 18.695694198122084 0 0 0
1930 1 17.696552950587854 17.026831045654582 21.04784709906104 0 0 0
1949 1 16.223286488023273 17.877422313436334 18.695694198122084 0 0 0
1950 1 16.223288418917836 19.578604849504583 21.04784709906104 0 0 0
169 1 17.69655652092541 20.429196117286335 18.695694198122084 -1 0 0
170 1 -11.768787193901536 22.130378653354576 21.04784709906104 0 0 0
189 1 16.223291989255397 22.98096992113632 18.695694198122084 -1 0 0
190 1 -13.242051725571542 24.682152457204573 21.04784709906104 0 0 0
389 1 -10.29551909189396 22.98096992113632 18.695694198122084 0 0 0
390 1 -10.295517160999388 24.682152457204573 21.04784709906104 0 0 0
369 1 -8.822254560223952 20.429196117286335 18.695694198122084 0 0 0
370 1 -8.822252629329387 22.130378653354576 21.04784709906104 0 0 0
569 1 -5.875719995651798 20.429196117286335 18.695694198122084 0 0 0
570 1 -5.87571806475723 22.130378653354576 21.04784709906104 0 0 0
589 1 -7.348984527321804 22.98096992113632 18.695694198122084 0 0 0
590 1 -7.348982596427231 24.682152457204573 21.04784709906104 0 0 0
769 1 -2.929185431079644 20.429196117286335 18.695694198122084 0 0 0
770 1 -2.9291835001850832 22.130378653354576 21.04784709906104 0 0 0
789 1 -4.402449962749657 22.98096992113632 18.695694198122084 0 0 0
790 1 -4.40244803185508 24.682152457204573 21.04784709906104 0 0 0
989 1 -1.455915398177505 22.98096992113632 18.695694198122084 0 0 0
990 1 -1.4559134672829335 24.682152457204573 21.04784709906104 0 0 0
969 1 0.01734913349250477 20.429196117286335 18.695694198122084 0 0 0
970 1 0.017351064387069074 22.130378653354576 21.04784709906104 0 0 0
1169 1 2.9638836980646555 20.429196117286335 18.695694198122084 0 0 0
1170 1 2.9638856289592233 22.130378653354576 21.04784709906104 0 0 0
1189 1 1.4906191663946455 22.98096992113632 18.695694198122084 0 0 0
1190 1 1.4906210972892153 24.682152457204573 21.04784709906104 0 0 0
1389 1 4.4371537309667985 22.98096992113632 18.695694198122084 0 0 0
1390 1 4.437155661861377 24.682152457204573 21.04784709906104 0 0 0
1369 1 5.91041826263681 20.429196117286335 18.695694198122084 0 0 0
1370 1 5.910420193531376 22.130378653354576 21.04784709906104 0 0 0
1569 1 8.856952827208955 20.429196117286335 18.695694198122084 0 0 0
1570 1 8.856954758103521 22.130378653354576 21.04784709906104 0 0 0
1589 1 7.383688295538953 22.98096992113632 18.695694198122084 0 0 0
1590 1 7.383690226433524 24.682152457204573 21.04784709906104 0 0 0
1769 1 11.803487391781102 20.429196117286335 18.695694198122084 0 0 0
1770 1 11.803489322675668 22.130378653354576 21.04784709906104 0 0 0
1789 1 10.330222860111098 22.98096992113632 18.695694198122084 0 0 0
1790 1 10.330224791005676 24.682152457204573 21.04784709906104 0 0 0
1989 1 13.276757424683245 22.98096992113632 18.695694198122084 0 0 0
1990 1 13.276759355577806 24.682152457204573 21.04784709906104 0 0 0
1969 1 14.750021956353246 20.429196117286335 18.695694198122084 0 0 0
1970 1 14.750023887247822 22.130378653354576 21.04784709906104 0 0 0
31 1 28.009408242615486 2.56677949033638 23.399999999999995 -1 0 0
32 1 -1.455935472211456 4.267962026404614 25.752152900938952 0 0 0
11 1 14.75002745758539 25.532743724986307 23.399999999999995 -1 -1 0
12 1 0.017329059458552756 1.7161882225546246 25.752152900938952 0 0 0
211 1 -11.768783623563966 25.532743724986307 23.399999999999995 0 -1 0
212 1 2.9638636240307035 1.7161882225546246 25.752152900938952 0 0 0
231 1 1.4905971614661275 2.56677949033638 23.399999999999995 0 0 0
232 1 1.4905990923606942 4.267962026404614 25.752152900938952 0 0 0
431 1 4.43713172603828 2.56677949033638 23.399999999999995 0 0 0
432 1 4.437133656932846 4.267962026404614 25.752152900938952 0 0 0
411 1 -8.822249058991815 25.532743724986307 23.399999999999995 0 -1 0
412 1 5.9103981886028585 1.7161882225546246 25.752152900938952 0 0 0
611 1 -5.875714494419666 25.532743724986307 23.399999999999995 0 -1 0
612 1 8.856932753174997 1.7161882225546246 25.752152900938952 0 0 0
631 1 7.383666290610423 2.56677949033638 23.399999999999995 0 0 0
632 1 7.383668221504998 4.267962026404614 25.752152900938952 0 0 0
811 1 -2.9291799298475163 25.532743724986307 23.399999999999995 0 -1 0
812 1 11.803467317747145 1.7161882225546246 25.752152900938952 0 0 0
831 1 10.330200855182579 2.56677949033638 23.399999999999995 0 0 0
832 1 10.330202786077143 4.267962026404614 25.752152900938952 0 0 0
1031 1 13.276735419754722 2.56677949033638 23.399999999999995 0 0 0
1032 1 13.276737350649295 4.267962026404614 25.752152900938952 0 0 0
1011 1 0.017354634724636067 25.532743724986307 23.399999999999995 0 -1 0
1012 1 14.750001882319305 1.7161882225546246 25.752152900938952 0 0 0
1211 1 2.9638891992967955 25.532743724986307 23.399999999999995 0 -1 0
1212 1 17.696536446891468 1.7161882225546246 25.752152900938952 0 0 0
1231 1 16.223269984326887 2.56677949033638 23.399999999999995 0 0 0
1232 1 16.223271915221456 4.267962026404614 25.752152900938952 0 0 0
1431 1 19.169804548899037 2.56677949033638 23.399999999999995 0 0 0
1432 1 19.169806479793596 4.267962026404614 25.752152900938952 0 0 0
1411 1 5.910423763868939 25.532743724986307 23.399999999999995 0 -1 0
1412 1 20.643071011463604 1.7161882225546246 25.752152900938952 0 0 0
1611 1 8.856958328441085 25.532743724986307 23.399999999999995 0 -1 0
1612 1 23.58960557603576 1.7161882225546246 25.752152900938952 0 0 0
1631 1 22.116339113471184 2.56677949033638 23.399999999999995 0 0 0
1632 1 22.11634104436575 4.267962026404614 25.752152900938952 0 0 0
1811 1 11.803492893013239 25.532743724986307 23.399999999999995 0 -1 0
1812 1 26.536140140607905 1.7161882225546246 25.752152900938952 0 0 0
1831 1 25.06287367804334 2.56677949033638 23.399999999999995 0 0 0
1832 1 25.062875608937897 4.267962026404614 25.752152900938952 0 0 0
51 1 26.53614371094547 5.118553294186371 23.399999999999995 -1 0 0
52 1 -2.9292000038814714 6.819735830254608 25.752152900938952 0 0 0
71 1 25.06287917927546 7.6703270980363625 23.399999999999995 -1 0 0
72 1 -4.40246453555148 9.371509634104601 25.752152900938952 0 0 0
271 1 -1.455931901873896 7.6703270980363625 23.399999999999995 0 0 0
272 1 -1.4559299709793319 9.371509634104601 25.752152900938952 0 0 0
251 1 0.017332629796116286 5.118553294186371 23.399999999999995 0 0 0
252 1 0.01733456069068059 6.819735830254608 25.752152900938952 0 0 0
451 1 2.9638671943682686 5.118553294186371 23.399999999999995 0 0 0
452 1 2.96386912526283 6.819735830254608 25.752152900938952 0 0 0
471 1 1.4906026626982558 7.6703270980363625 23.399999999999995 0 0 0
472 1 1.4906045935928174 9.371509634104601 25.752152900938952 0 0 0
671 1 4.437137227270403 7.6703270980363625 23.399999999999995 0 0 0
672 1 4.4371391581649675 9.371509634104601 25.752152900938952 0 0 0
651 1 5.910401758940415 5.118553294186371 23.399999999999995 0 0 0
652 1 5.910403689834977 6.819735830254608 25.752152900938952 0 0 0
851 1 8.856936323512564 5.118553294186371 23.399999999999995 0 0 0
852 1 8.856938254407119 6.819735830254608 25.752152900938952 0 0 0
871 1 7.383671791842554 7.6703270980363625 23.399999999999995 0 0 0
872 1 7.383673722737122 9.371509634104601 25.752152900938952 0 0 0
1051 1 11.803470888084714 5.118553294186371 23.399999999999995 0 0 0
1052 1 11.803472818979277 6.819735830254608 25.752152900938952 0 0 0
1071 1 10.330206356414699 7.6703270980363625 23.399999999999995 0 0 0
1072 1 10.330208287309276 9.371509634104601 25.752152900938952 0 0 0
1271 1 13.276740920986862 7.6703270980363625 23.399999999999995 0 0 0
1272 1 13.276742851881417 9.371509634104601 25.752152900938952 0 0 0
1251 1 14.750005452656861 5.118553294186371 23.399999999999995 0 0 0
1252 1 14.750007383551429 6.819735830254608 25.752152900938952 0 0 0
1451 1 17.69654001722902 5.118553294186371 23.399999999999995 0 0 0
1452 1 17.696541948123592 6.819735830254608 25.752152900938952 0 0 0
1471 1 16.223275485559018 7.6703270980363625 23.399999999999995 0 0 0
1472 1 16.223277416453566 9.371509634104601 25.752152900938952 0 0 0
1671 1 19.169810050131158 7.6703270980363625 23.399999999999995 0 0 0
1672 1 19.169811981025713 9.371509634104601 25.752152900938952 0 0 0
1651 1 20.643074581801173 5.118553294186371 23.399999999999995 0 0 0
1652 1 20.64307651269574 6.819735830254608 25.752152900938952 0 0 0
1851 1 23.589609146373313 5.118553294186371 23.399999999999995 0 0 0
1852 1 23.58961107726788 6.819735830254608 25.752152900938952 0 0 0
1871 1 22.116344614703312 7.6703270980363625 23.399999999999995 0 0 0
1872 1 22.116346545597867 9.371509634104601 25.752152900938952 0 0 0
91 1 23.589614647605455 10.222100901886359 23.399999999999995 -1 0 0
92 1 -5.875729067221488 11.923283437954598 25.752152900938952 0 0 0
111 1 22.116350115935436 12.77387470573635 23.399999999999995 -1 0 0
112 1 -7.348993598891496 14.475057241804585 25.752152900938952 0 0 0
291 1 -2.929196433543904 10.222100901886359 23.399999999999995 0 0 0
292 1 -2.92919450264934 11.923283437954598 25.752152900938952 0 0 0
311 1 -4.402460965213917 12.77387470573635 23.399999999999995 0 0 0
312 1 -4.402459034319348 14.475057241804585 25.752152900938952 0 0 0
511 1 -1.4559264006417663 12.77387470573635 23.399999999999995 0 0 0
512 1 -1.4559244697471958 14.475057241804585 25.752152900938952 0 0 0
491 1 0.017338131028245232 10.222100901886359 23.399999999999995 0 0 0
492 1 0.017340061922812202 11.923283437954598 25.752152900938952 0 0 0
691 1 2.9638726956003967 10.222100901886359 23.399999999999995 0 0 0
692 1 2.9638746264949614 11.923283437954598 25.752152900938952 0 0 0
711 1 1.4906081639303808 12.77387470573635 23.399999999999995 0 0 0
712 1 1.4906100948249477 14.475057241804585 25.752152900938952 0 0 0
911 1 4.4371427285025336 12.77387470573635 23.399999999999995 0 0 0
912 1 4.437144659397102 14.475057241804585 25.752152900938952 0 0 0
891 1 5.910407260172544 10.222100901886359 23.399999999999995 0 0 0
892 1 5.910409191067105 11.923283437954598 25.752152900938952 0 0 0
1091 1 8.856941824744696 10.222100901886359 23.399999999999995 0 0 0
1092 1 8.856943755639263 11.923283437954598 25.752152900938952 0 0 0
1111 1 7.383677293074681 12.77387470573635 23.399999999999995 0 0 0
1112 1 7.383679223969255 14.475057241804585 25.752152900938952 0 0 0
1291 1 11.803476389316849 10.222100901886359 23.399999999999995 0 0 0
1292 1 11.803478320211422 11.923283437954598 25.752152900938952 0 0 0
1311 1 10.330211857646827 12.77387470573635 23.399999999999995 0 0 0
1312 1 10.330213788541405 14.475057241804585 25.752152900938952 0 0 0
1511 1 13.276746422218984 12.77387470573635 23.399999999999995 0 0 0
1512 1 13.27674835311356 14.475057241804585 25.752152900938952 0 0 0
1491 1 14.750010953889003 10.222100901886359 23.399999999999995 0 0 0
1492 1 14.750012884783562 11.923283437954598 25.752152900938952 0 0 0
1691 1 17.696545518461154 10.222100901886359 23.399999999999995 0 0 0
1692 1 17.696547449355716 11.923283437954598 25.752152900938952 0 0 0
1711 1 16.223280986791142 12.77387470573635 23.399999999999995 0 0 0
1712 1 16.223282917685705 14.475057241804585 25.752152900938952 0 0 0
1911 1 19.169815551363293 12.77387470573635 23.399999999999995 0 0 0
1912 1 19.16981748225785 14.475057241804585 25.752152900938952 0 0 0
1891 1 20.6430800830333 10.222100901886359 23.399999999999995 0 0 0
1892 1 20.643082013927863 11.923283437954598 25.752152900938952 0 0 0
151 1 19.16982105259542 17.877422313436334 23.399999999999995 -1 0 0
152 1 -10.29552266223152 19.578604849504583 25.752152900938952 0 0 0
131 1 20.64308558426543 15.325648509586351 23.399999999999995 -1 0 0
132 1 -8.82225813056151 17.026831045654582 25.752152900938952 0 0 0
331 1 -5.8757254968839305 15.325648509586351 23.399999999999995 0 0 0
332 1 -5.87572356598935 17.026831045654582 25.752152900938952 0 0 0
351 1 -7.3489900285539385 17.877422313436334 23.399999999999995 0 0 0
352 1 -7.3489880976593644 19.578604849504583 25.752152900938952 0 0 0
531 1 -2.9291909323117777 15.325648509586351 23.399999999999995 0 0 0
532 1 -2.9291890014172024 17.026831045654582 25.752152900938952 0 0 0
551 1 -4.4024554639817834 17.877422313436334 23.399999999999995 0 0 0
552 1 -4.402453533087213 19.578604849504583 25.752152900938952 0 0 0
751 1 -1.4559208994096378 17.877422313436334 23.399999999999995 0 0 0
752 1 -1.4559189685150682 19.578604849504583 25.752152900938952 0 0 0
731 1 0.017343632260368405 15.325648509586351 23.399999999999995 0 0 0
732 1 0.01734556315494692 17.026831045654582 25.752152900938952 0 0 0
931 1 2.963878196832519 15.325648509586351 23.399999999999995 0 0 0
932 1 2.9638801277270996 17.026831045654582 25.752152900938952 0 0 0
951 1 1.490613665162511 17.877422313436334 23.399999999999995 0 0 0
952 1 1.4906155960570824 19.578604849504583 25.752152900938952 0 0 0
1151 1 4.437148229734662 17.877422313436334 23.399999999999995 0 0 0
1152 1 4.437150160629237 19.578604849504583 25.752152900938952 0 0 0
1131 1 5.910412761404668 15.325648509586351 23.399999999999995 0 0 0
1132 1 5.910414692299247 17.026831045654582 25.752152900938952 0 0 0
1331 1 8.856947325976817 15.325648509586351 23.399999999999995 0 0 0
1332 1 8.856949256871408 17.026831045654582 25.752152900938952 0 0 0
1351 1 7.383682794306829 17.877422313436334 23.399999999999995 0 0 0
1352 1 7.383684725201395 19.578604849504583 25.752152900938952 0 0 0
1531 1 11.803481890548971 15.325648509586351 23.399999999999995 0 0 0
1532 1 11.803483821443548 17.026831045654582 25.752152900938952 0 0 0
1551 1 10.33021735887897 17.877422313436334 23.399999999999995 0 0 0
1552 1 10.330219289773533 19.578604849504583 25.752152900938952 0 0 0
1751 1 13.276751923451114 17.877422313436334 23.399999999999995 0 0 0
1752 1 13.276753854345694 19.578604849504583 25.752152900938952 0 0 0
1731 1 14.750016455121118 15.325648509586351 23.399999999999995 0 0 0
1732 1 14.750018386015698 17.026831045654582 25.752152900938952 0 0 0
1931 1 17.696551019693263 15.325648509586351 23.399999999999995 0 0 0
1932 1 17.696552950587854 17.026831045654582 25.752152900938952 0 0 0
1951 1 16.223286488023273 17.877422313436334 23.399999999999995 0 0 0
1952 1 16.223288418917836 19.578604849504583 25.752152900938952 0 0 0
171 1 17.69655652092541 20.429196117286335 23.399999999999995 -1 0 0
172 1 -11.768787193901536 22.130378653354576 25.752152900938952 0 0 0
191 1 16.223291989255397 22.98096992113632 23.399999999999995 -1 0 0
192 1 -13.242051725571539 24.682152457204573 25.752152900938952 0 0 0
391 1 -10.295519091893956 22.98096992113632 23.399999999999995 0 0 0
392 1 -10.295517160999388 24.682152457204573 25.752152900938952 0 0 0
371 1 -8.822254560223952 20.429196117286335 23.399999999999995 0 0 0
372 1 -8.822252629329387 22.130378653354576 25.752152900938952 0 0 0
571 1 -5.875719995651798 20.429196117286335 23.399999999999995 0 0 0
572 1 -5.87571806475723 22.130378653354576 25.752152900938952 0 0 0
591 1 -7.348984527321804 22.98096992113632 23.399999999999995 0 0 0
592 1 -7.348982596427231 24.682152457204573 25.752152900938952 0 0 0
771 1 -2.9291854310796475 20.429196117286335 23.399999999999995 0 0 0
772 1 -2.9291835001850863 22.130378653354576 25.752152900938952 0 0 0
791 1 -4.40244996274966 22.98096992113632 23.399999999999995 0 0 0
792 1 -4.402448031855084 24.682152457204573 25.752152900938952 0 0 0
991 1 -1.4559153981775084 22.98096992113632 23.399999999999995 0 0 0
992 1 -1.455913467282937 24.682152457204573 25.752152900938952 0 0 0
971 1 0.01734913349249957 20.429196117286335 23.399999999999995 0 0 0
972 1 0.017351064387065653 22.130378653354576 25.752152900938952 0 0 0
1171 1 2.963883698064652 20.429196117286335 23.399999999999995 0 0 0
1172 1 2.96388562895922 22.130378653354576 25.752152900938952 0 0 0
1191 1 1.4906191663946422 22.98096992113632 23.399999999999995 0 0 0
1192 1 1.4906210972892153 24.682152457204573 25.752152900938952 0 0 0
1391 1 4.4371537309667985 22.98096992113632 23.399999999999995 0 0 0
1392 1 4.437155661861377 24.682152457204573 25.752152900938952 0 0 0
1371 1 5.91041826263681 20.429196117286335 23.399999999999995 0 0 0
1372 1 5.910420193531376 22.130378653354576 25.752152900938952 0 0 0
1571 1 8.856952827208955 20.429196117286335 23.399999999999995 0 0 0
1572 1 8.856954758103521 22.130378653354576 25.752152900938952 0 0 0
1591 1 7.383688295538953 22.98096992113632 23.399999999999995 0 0 0
1592 1 7.383690226433524 24.682152457204573 25.752152900938952 0 0 0
1771 1 11.803487391781102 20.429196117286335 23.399999999999995 0 0 0
1772 1 11.803489322675668 22.130378653354576 25.752152900938952 0 0 0
1791 1 10.330222860111098 22.98096992113632 23.399999999999995 0 0 0
1792 1 10.330224791005676 24.682152457204573 25.752152900938952 0 0 0
1991 1 13.276757424683245 22.98096992113632 23.399999999999995 0 0 0
1992 1 13.276759355577806 24.682152457204573 25.752152900938952 0 0 0
1971 1 14.750021956353246 20.429196117286335 23.399999999999995 0 0 0
1972 1 14.750023887247822 22.130378653354576 25.752152900938952 0 0 0
33 1 28.009408242615486 2.566779490336379 28.104305801877913 -1 0 0
34 1 -1.4559354722114557 4.267962026404619 30.45645870281687 0 0 0
13 1 14.75002745758539 25.532743724986307 28.104305801877913 -1 -1 0
14 1 0.017329059458553776 1.7161882225546228 30.45645870281687 0 0 0
213 1 -11.768783623563966 25.532743724986307 28.104305801877913 0 -1 0
214 1 2.9638636240307066 1.7161882225546228 30.45645870281687 0 0 0
233 1 1.4905971614661278 2.566779490336379 28.104305801877913 0 0 0
234 1 1.4905990923606975 4.267962026404619 30.45645870281687 0 0 0
433 1 4.437131726038281 2.566779490336379 28.104305801877913 0 0 0
434 1 4.437133656932848 4.267962026404619 30.45645870281687 0 0 0
413 1 -8.822249058991815 25.532743724986307 28.104305801877913 0 -1 0
414 1 5.91039818860286 1.7161882225546228 30.45645870281687 0 0 0
613 1 -5.875714494419666 25.532743724986307 28.104305801877913 0 -1 0
614 1 8.856932753174998 1.7161882225546228 30.45645870281687 0 0 0
633 1 7.383666290610427 2.566779490336379 28.104305801877913 0 0 0
634 1 7.383668221504998 4.267962026404619 30.45645870281687 0 0 0
813 1 -2.929179929847516 25.532743724986307 28.104305801877913 0 -1 0
814 1 11.803467317747145 1.7161882225546228 30.45645870281687 0 0 0
833 1 10.330200855182577 2.566779490336379 28.104305801877913 0 0 0
834 1 10.330202786077143 4.267962026404619 30.45645870281687 0 0 0
1033 1 13.276735419754724 2.566779490336379 28.104305801877913 0 0 0
1034 1 13.2767373506493 4.267962026404619 30.45645870281687 0 0 0
1013 1 0.0173546347246362 25.532743724986307 28.104305801877913 0 -1 0
1014 1 14.750001882319305 1.7161882225546228 30.45645870281687 0 0 0
1213 1 2.963889199296796 25.532743724986307 28.104305801877913 0 -1 0
1214 1 17.696536446891468 1.7161882225546228 30.45645870281687 0 0 0
1233 1 16.223269984326883 2.566779490336379 28.104305801877913 0 0 0
1234 1 16.223271915221456 4.267962026404619 30.45645870281687 0 0 0
1433 1 19.169804548899034 2.566779490336379 28.104305801877913 0 0 0
1434 1 19.169806479793596 4.267962026404619 30.45645870281687 0 0 0
1413 1 5.910423763868939 25.532743724986307 28.104305801877913 0 -1 0
1414 1 20.6430710114636 1.7161882225546228 30.45645870281687 0 0 0
1613 1 8.856958328441085 25.532743724986307 28.104305801877913 0 -1 0
1614 1 23.589605576035755 1.7161882225546228 30.45645870281687 0 0 0
1633 1 22.11633911347118 2.566779490336379 28.104305801877913 0 0 0
1634 1 22.11634104436575 4.267962026404619 30.45645870281687 0 0 0
1813 1 11.803492893013239 25.532743724986307 28.104305801877913 0 -1 0
1814 1 26.536140140607902 1.7161882225546228 30.45645870281687 0 0 0
1833 1 25.062873678043335 2.566779490336379 28.104305801877913 0 0 0
1834 1 25.062875608937894 4.267962026404619 30.45645870281687 0 0 0
53 1 26.536143710945474 5.118553294186372 28.104305801877913 -1 0 0
54 1 -2.929200003881472 6.819735830254612 30.45645870281687 0 0 0
73 1 25.06287917927546 7.670327098036368 28.104305801877913 -1 0 0
74 1 -4.402464535551478 9.371509634104603 30.45645870281687 0 0 0
273 1 -1.455931901873899 7.670327098036368 28.104305801877913 0 0 0
274 1 -1.4559299709793285 9.371509634104603 30.45645870281687 0 0 0
253 1 0.01733262979611553 5.118553294186372 28.104305801877913 0 0 0
254 1 0.01733456069068161 6.819735830254612 30.45645870281687 0 0 0
453 1 2.963867194368271 5.118553294186372 28.104305801877913 0 0 0
454 1 2.963869125262829 6.819735830254612 30.45645870281687 0 0 0
473 1 1.4906026626982516 7.670327098036368 28.104305801877913 0 0 0
474 1 1.490604593592823 9.371509634104603 30.45645870281687 0 0 0
673 1 4.437137227270401 7.670327098036368 28.104305801877913 0 0 0
674 1 4.43713915816497 9.371509634104603 30.45645870281687 0 0 0
653 1 5.910401758940415 5.118553294186372 28.104305801877913 0 0 0
654 1 5.910403689834977 6.819735830254612 30.45645870281687 0 0 0
853 1 8.856936323512565 5.118553294186372 28.104305801877913 0 0 0
854 1 8.856938254407126 6.819735830254612 30.45645870281687 0 0 0
873 1 7.383671791842551 7.670327098036368 28.104305801877913 0 0 0
874 1 7.383673722737126 9.371509634104603 30.45645870281687 0 0 0
1053 1 11.80347088808472 5.118553294186372 28.104305801877913 0 0 0
1054 1 11.803472818979275 6.819735830254612 30.45645870281687 0 0 0
1073 1 10.330206356414699 7.670327098036368 28.104305801877913 0 0 0
1074 1 10.330208287309272 9.371509634104603 30.45645870281687 0 0 0
1273 1 13.27674092098685 7.670327098036368 28.104305801877913 0 0 0
1274 1 13.276742851881416 9.371509634104603 30.45645870281687 0 0 0
1253 1 14.750005452656861 5.118553294186372 28.104305801877913 0 0 0
1254 1 14.750007383551427 6.819735830254612 30.45645870281687 0 0 0
1453 1 17.69654001722902 5.118553294186372 28.104305801877913 0 0 0
1454 1 17.69654194812358 6.819735830254612 30.45645870281687 0 0 0
1473 1 16.223275485559014 7.670327098036368 28.104305801877913 0 0 0
1474 1 16.22327741645357 9.371509634104603 30.45645870281687 0 0 0
1673 1 19.169810050131154 7.670327098036368 28.104305801877913 0 0 0
1674 1 19.169811981025713 9.371509634104603 30.45645870281687 0 0 0
1653 1 20.643074581801173 5.118553294186372 28.104305801877913 0 0 0
1654 1 20.64307651269573 6.819735830254612 30.45645870281687 0 0 0
1853 1 23.589609146373313 5.118553294186372 28.104305801877913 0 0 0
1854 1 23.589611077267868 6.819735830254612 30.45645870281687 0 0 0
1873 1 22.11634461470331 7.670327098036368 28.104305801877913 0 0 0
1874 1 22.11634654559787 9.371509634104603 30.45645870281687 0 0 0
93 1 23.58961464760545 10.222100901886366 28.104305801877913 -1 0 0
94 1 -5.875729067221489 11.923283437954602 30.45645870281687 0 0 0
113 1 22.11635011593544 12.773874705736354 28.104305801877913 -1 0 0
114 1 -7.348993598891496 14.475057241804585 30.45645870281687 0 0 0
293 1 -2.9291964335439067 10.222100901886366 28.104305801877913 0 0 0
294 1 -2.9291945026493416 11.923283437954602 30.45645870281687 0 0 0
313 1 -4.402460965213917 12.773874705736354 28.104305801877913 0 0 0
314 1 -4.402459034319346 14.475057241804585 30.45645870281687 0 0 0
513 1 -1.4559264006417652 12.773874705736354 28.104305801877913 0 0 0
514 1 -1.4559244697471938 14.475057241804585 30.45645870281687 0 0 0
493 1 0.017338131028243588 10.222100901886366 28.104305801877913 0 0 0
494 1 0.017340061922812334 11.923283437954602 30.45645870281687 0 0 0
693 1 2.9638726956003962 10.222100901886366 28.104305801877913 0 0 0
694 1 2.9638746264949596 11.923283437954602 30.45645870281687 0 0 0
713 1 1.4906081639303819 12.773874705736354 28.104305801877913 0 0 0
714 1 1.4906100948249479 14.475057241804585 30.45645870281687 0 0 0
913 1 4.437142728502536 12.773874705736354 28.104305801877913 0 0 0
914 1 4.437144659397106 14.475057241804585 30.45645870281687 0 0 0
893 1 5.910407260172543 10.222100901886366 28.104305801877913 0 0 0
894 1 5.910409191067112 11.923283437954602 30.45645870281687 0 0 0
1093 1 8.856941824744688 10.222100901886366 28.104305801877913 0 0 0
1094 1 8.85694375563926 11.923283437954602 30.45645870281687 0 0 0
1113 1 7.3836772930746815 12.773874705736354 28.104305801877913 0 0 0
1114 1 7.383679223969255 14.475057241804585 30.45645870281687 0 0 0
1293 1 11.803476389316845 10.222100901886366 28.104305801877913 0 0 0
1294 1 11.80347832021141 11.923283437954602 30.45645870281687 0 0 0
1313 1 10.330211857646827 12.773874705736354 28.104305801877913 0 0 0
1314 1 10.330213788541405 14.475057241804585 30.45645870281687 0 0 0
1513 1 13.276746422218984 12.773874705736354 28.104305801877913 0 0 0
1514 1 13.27674835311356 14.475057241804585 30.45645870281687 0 0 0
1493 1 14.750010953888996 10.222100901886366 28.104305801877913 0 0 0
1494 1 14.750012884783564 11.923283437954602 30.45645870281687 0 0 0
1693 1 17.696545518461154 10.222100901886366 28.104305801877913 0 0 0
1694 1 17.696547449355716 11.923283437954602 30.45645870281687 0 0 0
1713 1 16.22328098679113 12.773874705736354 28.104305801877913 0 0 0
1714 1 16.223282917685705 14.475057241804585 30.45645870281687 0 0 0
1913 1 19.16981555136329 12.773874705736354 28.104305801877913 0 0 0
1914 1 19.16981748225785 14.475057241804585 30.45645870281687 0 0 0
1893 1 20.643080083033304 10.222100901886366 28.104305801877913 0 0 0
1894 1 20.643082013927863 11.923283437954602 30.45645870281687 0 0 0
153 1 19.16982105259542 17.877422313436334 28.104305801877913 -1 0 0
154 1 -10.29552266223152 19.578604849504583 30.45645870281687 0 0 0
133 1 20.64308558426543 15.325648509586351 28.104305801877913 -1 0 0
134 1 -8.82225813056151 17.026831045654582 30.45645870281687 0 0 0
333 1 -5.875725496883929 15.325648509586351 28.104305801877913 0 0 0
334 1 -5.875723565989349 17.026831045654582 30.45645870281687 0 0 0
353 1 -7.348990028553939 17.877422313436334 28.104305801877913 0 0 0
354 1 -7.348988097659363 19.578604849504583 30.45645870281687 0 0 0
533 1 -2.9291909323117764 15.325648509586351 28.104305801877913 0 0 0
534 1 -2.9291890014172006 17.026831045654582 30.45645870281687 0 0 0
553 1 -4.4024554639817834 17.877422313436334 28.104305801877913 0 0 0
554 1 -4.402453533087211 19.578604849504583 30.45645870281687 0 0 0
753 1 -1.4559208994096358 17.877422313436334 28.104305801877913 0 0 0
754 1 -1.4559189685150626 19.578604849504583 30.45645870281687 0 0 0
733 1 0.017343632260370313 15.325648509586351 28.104305801877913 0 0 0
734 1 0.01734556315494883 17.026831045654582 30.45645870281687 0 0 0
933 1 2.9638781968325265 15.325648509586351 28.104305801877913 0 0 0
934 1 2.9638801277270996 17.026831045654582 30.45645870281687 0 0 0
953 1 1.4906136651625113 17.877422313436334 28.104305801877913 0 0 0
954 1 1.490615596057088 19.578604849504583 30.45645870281687 0 0 0
1153 1 4.437148229734662 17.877422313436334 28.104305801877913 0 0 0
1154 1 4.437150160629237 19.578604849504583 30.45645870281687 0 0 0
1133 1 5.910412761404668 15.325648509586351 28.104305801877913 0 0 0
1134 1 5.910414692299247 17.026831045654582 30.45645870281687 0 0 0
1333 1 8.856947325976817 15.325648509586351 28.104305801877913 0 0 0
1334 1 8.856949256871408 17.026831045654582 30.45645870281687 0 0 0
1353 1 7.383682794306829 17.877422313436334 28.104305801877913 0 0 0
1354 1 7.383684725201395 19.578604849504583 30.45645870281687 0 0 0
1533 1 11.803481890548971 15.325648509586351 28.104305801877913 0 0 0
1534 1 11.803483821443548 17.026831045654582 30.45645870281687 0 0 0
1553 1 10.33021735887897 17.877422313436334 28.104305801877913 0 0 0
1554 1 10.330219289773533 19.578604849504583 30.45645870281687 0 0 0
1753 1 13.276751923451114 17.877422313436334 28.104305801877913 0 0 0
1754 1 13.276753854345694 19.578604849504583 30.45645870281687 0 0 0
1733 1 14.750016455121118 15.325648509586351 28.104305801877913 0 0 0
1734 1 14.750018386015698 17.026831045654582 30.45645870281687 0 0 0
1933 1 17.696551019693263 15.325648509586351 28.104305801877913 0 0 0
1934 1 17.696552950587854 17.026831045654582 30.45645870281687 0 0 0
1953 1 16.223286488023273 17.877422313436334 28.104305801877913 0 0 0
1954 1 16.223288418917836 19.578604849504583 30.45645870281687 0 0 0
173 1 17.69655652092541 20.429196117286335 28.104305801877913 -1 0 0
174 1 -11.768787193901536 22.130378653354576 30.45645870281687 0 0 0
193 1 16.223291989255404 22.98096992113632 28.104305801877913 -1 0 0
194 1 -13.24205172557154 24.682152457204573 30.45645870281687 0 0 0
393 1 -10.295519091893954 22.98096992113632 28.104305801877913 0 0 0
394 1 -10.295517160999387 24.682152457204573 30.45645870281687 0 0 0
373 1 -8.822254560223952 20.429196117286335 28.104305801877913 0 0 0
374 1 -8.822252629329386 22.130378653354576 30.45645870281687 0 0 0
573 1 -5.875719995651798 20.429196117286335 28.104305801877913 0 0 0
574 1 -5.875718064757229 22.130378653354576 30.45645870281687 0 0 0
593 1 -7.348984527321804 22.98096992113632 28.104305801877913 0 0 0
594 1 -7.34898259642723 24.682152457204573 30.45645870281687 0 0 0
773 1 -2.929185431079647 20.429196117286335 28.104305801877913 0 0 0
774 1 -2.9291835001850863 22.130378653354576 30.45645870281687 0 0 0
793 1 -4.40244996274966 22.98096992113632 28.104305801877913 0 0 0
794 1 -4.40244803185508 24.682152457204573 30.45645870281687 0 0 0
993 1 -1.4559153981775064 22.98096992113632 28.104305801877913 0 0 0
994 1 -1.4559134672829368 24.682152457204573 30.45645870281687 0 0 0
973 1 0.017349133492505033 20.429196117286335 28.104305801877913 0 0 0
974 1 0.01735106438706756 22.130378653354576 30.45645870281687 0 0 0
1173 1 2.9638836980646524 20.429196117286335 28.104305801877913 0 0 0
1174 1 2.96388562895922 22.130378653354576 30.45645870281687 0 0 0
1193 1 1.4906191663946424 22.98096992113632 28.104305801877913 0 0 0
1194 1 1.4906210972892155 24.682152457204573 30.45645870281687 0 0 0
1393 1 4.4371537309667985 22.98096992113632 28.104305801877913 0 0 0
1394 1 4.437155661861377 24.682152457204573 30.45645870281687 0 0 0
1373 1 5.91041826263681 20.429196117286335 28.104305801877913 0 0 0
1374 1 5.910420193531376 22.130378653354576 30.45645870281687 0 0 0
1573 1 8.856952827208955 20.429196117286335 28.104305801877913 0 0 0
1574 1 8.856954758103521 22.130378653354576 30.45645870281687 0 0 0
1593 1 7.383688295538953 22.98096992113632 28.104305801877913 0 0 0
1594 1 7.383690226433524 24.682152457204573 30.45645870281687 0 0 0
1773 1 11.803487391781102 20.429196117286335 28.104305801877913 0 0 0
1774 1 11.803489322675668 22.130378653354576 30.45645870281687 0 0 0
1793 1 10.330222860111098 22.98096992113632 28.104305801877913 0 0 0
1794 1 10.330224791005676 24.682152457204573 30.45645870281687 0 0 0
1993 1 13.276757424683245 22.98096992113632 28.104305801877913 0 0 0
1994 1 13.276759355577806 24.682152457204573 30.45645870281687 0 0 0
1973 1 14.750021956353246 20.429196117286335 28.104305801877913 0 0 0
1974 1 14.750023887247822 22.130378653354576 30.45645870281687 0 0 0
35 1 28.009408242615486 2.56677949033638 32.80861160375582 -1 0 0
36 1 -1.4559354722114561 4.267962026404619 35.16076450469479 0 0 0
15 1 14.750027457585391 25.532743724986307 32.80861160375582 -1 -1 0
16 1 0.01732905945855313 1.7161882225546234 35.16076450469479 0 0 0
215 1 -11.768783623563964 25.532743724986307 32.80861160375582 0 -1 0
216 1 2.9638636240307035 1.7161882225546234 35.16076450469479 0 0 0
235 1 1.4905971614661269 2.56677949033638 32.80861160375582 0 0 0
236 1 1.4905990923606949 4.267962026404619 35.16076450469479 0 0 0
435 1 4.43713172603828 2.56677949033638 32.80861160375582 0 0 0
436 1 4.437133656932845 4.267962026404619 35.16076450469479 0 0 0
415 1 -8.822249058991813 25.532743724986307 32.80861160375582 0 -1 0
416 1 5.910398188602855 1.7161882225546234 35.16076450469479 0 0 0
615 1 -5.8757144944196575 25.532743724986307 32.80861160375582 0 -1 0
616 1 8.856932753175006 1.7161882225546234 35.16076450469479 0 0 0
635 1 7.3836662906104245 2.56677949033638 32.80861160375582 0 0 0
636 1 7.383668221504996 4.267962026404619 35.16076450469479 0 0 0
815 1 -2.9291799298475105 25.532743724986307 32.80861160375582 0 -1 0
816 1 11.803467317747154 1.7161882225546234 35.16076450469479 0 0 0
835 1 10.330200855182582 2.56677949033638 32.80861160375582 0 0 0
836 1 10.33020278607715 4.267962026404619 35.16076450469479 0 0 0
1035 1 13.27673541975473 2.56677949033638 32.80861160375582 0 0 0
1036 1 13.276737350649304 4.267962026404619 35.16076450469479 0 0 0
1015 1 0.017354634724643436 25.532743724986307 32.80861160375582 0 -1 0
1016 1 14.750001882319314 1.7161882225546234 35.16076450469479 0 0 0
1215 1 2.9638891992967853 25.532743724986307 32.80861160375582 0 -1 0
1216 1 17.696536446891464 1.7161882225546234 35.16076450469479 0 0 0
1235 1 16.223269984326887 2.56677949033638 32.80861160375582 0 0 0
1236 1 16.223271915221456 4.267962026404619 35.16076450469479 0 0 0
1435 1 19.169804548899037 2.56677949033638 32.80861160375582 0 0 0
1436 1 19.1698064797936 4.267962026404619 35.16076450469479 0 0 0
1415 1 5.910423763868939 25.532743724986307 32.80861160375582 0 -1 0
1416 1 20.643071011463597 1.7161882225546234 35.16076450469479 0 0 0
1615 1 8.856958328441086 25.532743724986307 32.80861160375582 0 -1 0
1616 1 23.58960557603575 1.7161882225546234 35.16076450469479 0 0 0
1635 1 22.116339113471184 2.56677949033638 32.80861160375582 0 0 0
1636 1 22.116341044365758 4.267962026404619 35.16076450469479 0 0 0
1815 1 11.803492893013237 25.532743724986307 32.80861160375582 0 -1 0
1816 1 26.536140140607902 1.7161882225546234 35.16076450469479 0 0 0
1835 1 25.06287367804334 2.56677949033638 32.80861160375582 0 0 0
1836 1 25.062875608937894 4.267962026404619 35.16076450469479 0 0 0
55 1 26.536143710945474 5.118553294186374 32.80861160375582 -1 0 0
56 1 -2.9292000038814723 6.819735830254612 35.16076450469479 0 0 0
75 1 25.06287917927546 7.67032709803637 32.80861160375582 -1 0 0
76 1 -4.402464535551479 9.371509634104596 35.16076450469479 0 0 0
275 1 -1.4559319018738999 7.67032709803637 32.80861160375582 0 0 0
276 1 -1.4559299709793307 9.371509634104596 35.16076450469479 0 0 0
255 1 0.01733262979611566 5.118553294186374 32.80861160375582 0 0 0
256 1 0.01733456069068041 6.819735830254612 35.16076450469479 0 0 0
455 1 2.96386719436827 5.118553294186374 32.80861160375582 0 0 0
456 1 2.963869125262829 6.819735830254612 35.16076450469479 0 0 0
475 1 1.4906026626982525 7.67032709803637 32.80861160375582 0 0 0
476 1 1.4906045935928212 9.371509634104596 35.16076450469479 0 0 0
675 1 4.437137227270403 7.67032709803637 32.80861160375582 0 0 0
676 1 4.437139158164971 9.371509634104596 35.16076450469479 0 0 0
655 1 5.9104017589404165 5.118553294186374 32.80861160375582 0 0 0
656 1 5.910403689834984 6.819735830254612 35.16076450469479 0 0 0
855 1 8.85693632351257 5.118553294186374 32.80861160375582 0 0 0
856 1 8.856938254407133 6.819735830254612 35.16076450469479 0 0 0
875 1 7.383671791842554 7.67032709803637 32.80861160375582 0 0 0
876 1 7.383673722737125 9.371509634104596 35.16076450469479 0 0 0
1055 1 11.803470888084723 5.118553294186374 32.80861160375582 0 0 0
1056 1 11.803472818979284 6.819735830254612 35.16076450469479 0 0 0
1075 1 10.330206356414708 7.67032709803637 32.80861160375582 0 0 0
1076 1 10.330208287309285 9.371509634104596 35.16076450469479 0 0 0
1275 1 13.276740920986857 7.67032709803637 32.80861160375582 0 0 0
1276 1 13.276742851881423 9.371509634104596 35.16076450469479 0 0 0
1255 1 14.750005452656882 5.118553294186374 32.80861160375582 0 0 0
1256 1 14.750007383551436 6.819735830254612 35.16076450469479 0 0 0
1455 1 17.696540017229026 5.118553294186374 32.80861160375582 0 0 0
1456 1 17.69654194812358 6.819735830254612 35.16076450469479 0 0 0
1475 1 16.22327548555901 7.67032709803637 32.80861160375582 0 0 0
1476 1 16.223277416453573 9.371509634104596 35.16076450469479 0 0 0
1675 1 19.16981005013115 7.67032709803637 32.80861160375582 0 0 0
1676 1 19.169811981025713 9.371509634104596 35.16076450469479 0 0 0
1655 1 20.643074581801176 5.118553294186374 32.80861160375582 0 0 0
1656 1 20.64307651269573 6.819735830254612 35.16076450469479 0 0 0
1855 1 23.58960914637333 5.118553294186374 32.80861160375582 0 0 0
1856 1 23.589611077267868 6.819735830254612 35.16076450469479 0 0 0
1875 1 22.116344614703305 7.67032709803637 32.80861160375582 0 0 0
1876 1 22.116346545597874 9.371509634104596 35.16076450469479 0 0 0
95 1 23.58961464760545 10.222100901886359 32.80861160375582 -1 0 0
96 1 -5.87572906722149 11.923283437954595 35.16076450469479 0 0 0
115 1 22.116350115935436 12.773874705736352 32.80861160375582 -1 0 0
116 1 -7.348993598891501 14.475057241804585 35.16076450469479 0 0 0
295 1 -2.9291964335439067 10.222100901886359 32.80861160375582 0 0 0
296 1 -2.929194502649343 11.923283437954595 35.16076450469479 0 0 0
315 1 -4.402460965213923 12.773874705736352 32.80861160375582 0 0 0
316 1 -4.4024590343193495 14.475057241804585 35.16076450469479 0 0 0
515 1 -1.4559264006417687 12.773874705736352 32.80861160375582 0 0 0
516 1 -1.455924469747201 14.475057241804585 35.16076450469479 0 0 0
495 1 0.017338131028244608 10.222100901886359 32.80861160375582 0 0 0
496 1 0.0173400619228098 11.923283437954595 35.16076450469479 0 0 0
695 1 2.9638726956003936 10.222100901886359 32.80861160375582 0 0 0
696 1 2.963874626494957 11.923283437954595 35.16076450469479 0 0 0
715 1 1.4906081639303783 12.773874705736352 32.80861160375582 0 0 0
716 1 1.4906100948249479 14.475057241804585 35.16076450469479 0 0 0
915 1 4.437142728502533 12.773874705736352 32.80861160375582 0 0 0
916 1 4.4371446593971005 14.475057241804585 35.16076450469479 0 0 0
895 1 5.910407260172544 10.222100901886359 32.80861160375582 0 0 0
896 1 5.9104091910671075 11.923283437954595 35.16076450469479 0 0 0
1095 1 8.8569418247447 10.222100901886359 32.80861160375582 0 0 0
1096 1 8.856943755639263 11.923283437954595 35.16076450469479 0 0 0
1115 1 7.38367729307468 12.773874705736352 32.80861160375582 0 0 0
1116 1 7.3836792239692475 14.475057241804585 35.16076450469479 0 0 0
1295 1 11.80347638931685 10.222100901886359 32.80861160375582 0 0 0
1296 1 11.80347832021141 11.923283437954595 35.16076450469479 0 0 0
1315 1 10.330211857646821 12.773874705736352 32.80861160375582 0 0 0
1316 1 10.3302137885414 14.475057241804585 35.16076450469479 0 0 0
1515 1 13.276746422218986 12.773874705736352 32.80861160375582 0 0 0
1516 1 13.276748353113554 14.475057241804585 35.16076450469479 0 0 0
1495 1 14.750010953889005 10.222100901886359 32.80861160375582 0 0 0
1496 1 14.750012884783557 11.923283437954595 35.16076450469479 0 0 0
1695 1 17.696545518461143 10.222100901886359 32.80861160375582 0 0 0
1696 1 17.696547449355702 11.923283437954595 35.16076450469479 0 0 0
1715 1 16.223280986791135 12.773874705736352 32.80861160375582 0 0 0
1716 1 16.223282917685697 14.475057241804585 35.16076450469479 0 0 0
1915 1 19.169815551363286 12.773874705736352 32.80861160375582 0 0 0
1916 1 19.16981748225785 14.475057241804585 35.16076450469479 0 0 0
1895 1 20.64308008303329 10.222100901886359 32.80861160375582 0 0 0
1896 1 20.643082013927845 11.923283437954595 35.16076450469479 0 0 0
155 1 19.169821052595427 17.877422313436334 32.80861160375582 -1 0 0
156 1 -10.295522662231516 19.578604849504583 35.16076450469479 0 0 0
135 1 20.64308558426543 15.325648509586342 32.80861160375582 -1 0 0
136 1 -8.8222581305615 17.026831045654582 35.16076450469479 0 0 0
335 1 -5.875725496883929 15.325648509586342 32.80861160375582 0 0 0
336 1 -5.875723565989352 17.026831045654582 35.16076450469479 0 0 0
355 1 -7.348990028553939 17.877422313436334 32.80861160375582 0 0 0
356 1 -7.348988097659365 19.578604849504583 35.16076450469479 0 0 0
535 1 -2.929190932311778 15.325648509586342 32.80861160375582 0 0 0
536 1 -2.9291890014172024 17.026831045654582 35.16076450469479 0 0 0
555 1 -4.402455463981783 17.877422313436334 32.80861160375582 0 0 0
556 1 -4.402453533087215 19.578604849504583 35.16076450469479 0 0 0
755 1 -1.4559208994096358 17.877422313436334 32.80861160375582 0 0 0
756 1 -1.4559189685150626 19.578604849504583 35.16076450469479 0 0 0
735 1 0.017343632260370445 15.325648509586342 32.80861160375582 0 0 0
736 1 0.01734556315495429 17.026831045654582 35.16076450469479 0 0 0
935 1 2.963878196832521 15.325648509586342 32.80861160375582 0 0 0
936 1 2.9638801277270996 17.026831045654582 35.16076450469479 0 0 0
955 1 1.490613665162513 17.877422313436334 32.80861160375582 0 0 0
956 1 1.490615596057088 19.578604849504583 35.16076450469479 0 0 0
1155 1 4.437148229734666 17.877422313436334 32.80861160375582 0 0 0
1156 1 4.437150160629237 19.578604849504583 35.16076450469479 0 0 0
1135 1 5.910412761404672 15.325648509586342 32.80861160375582 0 0 0
1136 1 5.9104146922992395 17.026831045654582 35.16076450469479 0 0 0
1335 1 8.856947325976824 15.325648509586342 32.80861160375582 0 0 0
1336 1 8.856949256871417 17.026831045654582 35.16076450469479 0 0 0
1355 1 7.383682794306829 17.877422313436334 32.80861160375582 0 0 0
1356 1 7.383684725201395 19.578604849504583 35.16076450469479 0 0 0
1535 1 11.803481890548971 15.325648509586342 32.80861160375582 0 0 0
1536 1 11.803483821443564 17.026831045654582 35.16076450469479 0 0 0
1555 1 10.330217358878976 17.877422313436334 32.80861160375582 0 0 0
1556 1 10.330219289773542 19.578604849504583 35.16076450469479 0 0 0
1755 1 13.276751923451116 17.877422313436334 32.80861160375582 0 0 0
1756 1 13.276753854345703 19.578604849504583 35.16076450469479 0 0 0
1735 1 14.750016455121125 15.325648509586342 32.80861160375582 0 0 0
1736 1 14.7500183860157 17.026831045654582 35.16076450469479 0 0 0
1935 1 17.69655101969327 15.325648509586342 32.80861160375582 0 0 0
1936 1 17.696552950587854 17.026831045654582 35.16076450469479 0 0 0
1955 1 16.223286488023273 17.877422313436334 32.80861160375582 0 0 0
1956 1 16.223288418917836 19.578604849504583 35.16076450469479 0 0 0
175 1 17.696556520925416 20.429196117286335 32.80861160375582 -1 0 0
176 1 -11.768787193901531 22.130378653354576 35.16076450469479 0 0 0
195 1 16.223291989255404 22.98096992113632 32.80861160375582 -1 0 0
196 1 -13.242051725571534 24.682152457204573 35.16076450469479 0 0 0
395 1 -10.295519091893949 22.98096992113632 32.80861160375582 0 0 0
396 1 -10.295517160999383 24.682152457204573 35.16076450469479 0 0 0
375 1 -8.822254560223946 20.429196117286335 32.80861160375582 0 0 0
376 1 -8.82225262932938 22.130378653354576 35.16076450469479 0 0 0
575 1 -5.875719995651796 20.429196117286335 32.80861160375582 0 0 0
576 1 -5.875718064757232 22.130378653354576 35.16076450469479 0 0 0
595 1 -7.348984527321804 22.98096992113632 32.80861160375582 0 0 0
596 1 -7.348982596427232 24.682152457204573 35.16076450469479 0 0 0
775 1 -2.9291854310796452 20.429196117286335 32.80861160375582 0 0 0
776 1 -2.929183500185083 22.130378653354576 35.16076450469479 0 0 0
795 1 -4.402449962749657 22.98096992113632 32.80861160375582 0 0 0
796 1 -4.40244803185508 24.682152457204573 35.16076450469479 0 0 0
995 1 -1.4559153981775028 22.98096992113632 32.80861160375582 0 0 0
996 1 -1.455913467282935 24.682152457204573 35.16076450469479 0 0 0
975 1 0.017349133492505164 20.429196117286335 32.80861160375582 0 0 0
976 1 0.01735106438706947 22.130378653354576 35.16076450469479 0 0 0
1175 1 2.963883698064656 20.429196117286335 32.80861160375582 0 0 0
1176 1 2.96388562895922 22.130378653354576 35.16076450469479 0 0 0
1195 1 1.4906191663946424 22.98096992113632 32.80861160375582 0 0 0
1196 1 1.490621097289212 24.682152457204573 35.16076450469479 0 0 0
1395 1 4.4371537309667985 22.98096992113632 32.80861160375582 0 0 0
1396 1 4.437155661861377 24.682152457204573 35.16076450469479 0 0 0
1375 1 5.91041826263681 20.429196117286335 32.80861160375582 0 0 0
1376 1 5.910420193531376 22.130378653354576 35.16076450469479 0 0 0
1575 1 8.85695282720896 20.429196117286335 32.80861160375582 0 0 0
1576 1 8.856954758103527 22.130378653354576 35.16076450469479 0 0 0
1595 1 7.383688295538953 22.98096992113632 32.80861160375582 0 0 0
1596 1 7.383690226433524 24.682152457204573 35.16076450469479 0 0 0
1775 1 11.803487391781108 20.429196117286335 32.80861160375582 0 0 0
1776 1 11.803489322675674 22.130378653354576 35.16076450469479 0 0 0
1795 1 10.330222860111103 22.98096992113632 32.80861160375582 0 0 0
1796 1 10.330224791005678 24.682152457204573 35.16076450469479 0 0 0
1995 1 13.27675742468325 22.98096992113632 32.80861160375582 0 0 0
1996 1 13.276759355577815 24.682152457204573 35.16076450469479 0 0 0
1975 1 14.750021956353255 20.429196117286335 32.80861160375582 0 0 0
1976 1 14.750023887247831 22.130378653354576 35.16076450469479 0 0 0
37 1 28.009408242615486 2.5667794903363794 37.51291740563374 -1 0 0
38 1 -1.4559354722114564 4.267962026404619 39.865070306572704 0 0 0
39 1 28.009408242615486 2.566779490336379 42.21722320751166 -1 0 0
17 1 14.750027457585391 25.532743724986307 37.51291740563374 -1 -1 0
18 1 0.017329059458553373 1.716188222554624 39.865070306572704 0 0 0
19 1 14.750027457585391 25.532743724986307 42.21722320751166 -1 -1 0
217 1 -11.768783623563964 25.532743724986307 37.51291740563374 0 -1 0
218 1 2.963863624030704 1.716188222554624 39.865070306572704 0 0 0
219 1 -11.768783623563964 25.532743724986307 42.21722320751166 0 -1 0
237 1 1.4905971614661273 2.5667794903363794 37.51291740563374 0 0 0
238 1 1.4905990923606924 4.267962026404619 39.865070306572704 0 0 0
239 1 1.4905971614661264 2.566779490336379 42.21722320751166 0 0 0
437 1 4.437131726038279 2.5667794903363794 37.51291740563374 0 0 0
438 1 4.4371336569328435 4.267962026404619 39.865070306572704 0 0 0
439 1 4.437131726038278 2.566779490336379 42.21722320751166 0 0 0
417 1 -8.822249058991815 25.532743724986307 37.51291740563374 0 -1 0
418 1 5.910398188602851 1.716188222554624 39.865070306572704 0 0 0
419 1 -8.822249058991815 25.532743724986307 42.21722320751166 0 -1 0
617 1 -5.875714494419656 25.532743724986307 37.51291740563374 0 -1 0
618 1 8.856932753175009 1.716188222554624 39.865070306572704 0 0 0
619 1 -5.8757144944196575 25.532743724986307 42.21722320751166 0 -1 0
637 1 7.383666290610432 2.5667794903363794 37.51291740563374 0 0 0
638 1 7.383668221504999 4.267962026404619 39.865070306572704 0 0 0
639 1 7.383666290610429 2.566779490336379 42.21722320751166 0 0 0
817 1 -2.929179929847507 25.532743724986307 37.51291740563374 0 -1 0
818 1 11.803467317747154 1.716188222554624 39.865070306572704 0 0 0
819 1 -2.92917992984751 25.532743724986307 42.21722320751166 0 -1 0
837 1 10.330200855182584 2.5667794903363794 37.51291740563374 0 0 0
838 1 10.33020278607715 4.267962026404619 39.865070306572704 0 0 0
839 1 10.330200855182584 2.566779490336379 42.21722320751166 0 0 0
1037 1 13.276735419754731 2.5667794903363794 37.51291740563374 0 0 0
1038 1 13.276737350649295 4.267962026404619 39.865070306572704 0 0 0
1039 1 13.276735419754731 2.566779490336379 42.21722320751166 0 0 0
1017 1 0.017354634724640015 25.532743724986307 37.51291740563374 0 -1 0
1018 1 14.75000188231931 1.716188222554624 39.865070306572704 0 0 0
1019 1 0.017354634724640147 25.532743724986307 42.21722320751166 0 -1 0
1217 1 2.9638891992967853 25.532743724986307 37.51291740563374 0 -1 0
1218 1 17.696536446891468 1.716188222554624 39.865070306572704 0 0 0
1219 1 2.9638891992967857 25.532743724986307 42.21722320751166 0 -1 0
1237 1 16.223269984326887 2.5667794903363794 37.51291740563374 0 0 0
1238 1 16.22327191522146 4.267962026404619 39.865070306572704 0 0 0
1239 1 16.223269984326883 2.566779490336379 42.21722320751166 0 0 0
1437 1 19.169804548899037 2.5667794903363794 37.51291740563374 0 0 0
1438 1 19.1698064797936 4.267962026404619 39.865070306572704 0 0 0
1439 1 19.169804548899034 2.566779490336379 42.21722320751166 0 0 0
1417 1 5.910423763868943 25.532743724986307 37.51291740563374 0 -1 0
1418 1 20.6430710114636 1.716188222554624 39.865070306572704 0 0 0
1419 1 5.910423763868943 25.532743724986307 42.21722320751166 0 -1 0
1617 1 8.85695832844109 25.532743724986307 37.51291740563374 0 -1 0
1618 1 23.589605576035755 1.716188222554624 39.865070306572704 0 0 0
1619 1 8.85695832844109 25.532743724986307 42.21722320751166 0 -1 0
1637 1 22.116339113471184 2.5667794903363794 37.51291740563374 0 0 0
1638 1 22.116341044365758 4.267962026404619 39.865070306572704 0 0 0
1639 1 22.116339113471184 2.566779490336379 42.21722320751166 0 0 0
1817 1 11.803492893013237 25.532743724986307 37.51291740563374 0 -1 0
1818 1 26.536140140607905 1.716188222554624 39.865070306572704 0 0 0
1819 1 11.803492893013237 25.532743724986307 42.21722320751166 0 -1 0
1837 1 25.06287367804334 2.5667794903363794 37.51291740563374 0 0 0
1838 1 25.062875608937897 4.267962026404619 39.865070306572704 0 0 0
1839 1 25.062873678043335 2.566779490336379 42.21722320751166 0 0 0
57 1 26.53614371094547 5.118553294186373 37.51291740563374 -1 0 0
58 1 -2.9292000038814714 6.819735830254612 39.865070306572704 0 0 0
59 1 26.536143710945474 5.118553294186374 42.21722320751166 -1 0 0
77 1 25.06287917927546 7.67032709803637 37.51291740563374 -1 0 0
78 1 -4.402464535551478 9.371509634104596 39.865070306572704 0 0 0
79 1 25.06287917927546 7.67032709803637 42.21722320751166 -1 0 0
277 1 -1.4559319018738988 7.67032709803637 37.51291740563374 0 0 0
278 1 -1.4559299709793296 9.371509634104596 39.865070306572704 0 0 0
279 1 -1.4559319018738992 7.67032709803637 42.21722320751166 0 0 0
257 1 0.017332629796116238 5.118553294186373 37.51291740563374 0 0 0
258 1 0.017334560690679655 6.819735830254612 39.865070306572704 0 0 0
259 1 0.01733262979611548 5.118553294186374 42.21722320751166 0 0 0
457 1 2.9638671943682677 5.118553294186373 37.51291740563374 0 0 0
458 1 2.96386912526283 6.819735830254612 39.865070306572704 0 0 0
459 1 2.9638671943682677 5.118553294186374 42.21722320751166 0 0 0
477 1 1.4906026626982518 7.67032709803637 37.51291740563374 0 0 0
478 1 1.4906045935928214 9.371509634104596 39.865070306572704 0 0 0
479 1 1.4906026626982527 7.67032709803637 42.21722320751166 0 0 0
677 1 4.437137227270403 7.67032709803637 37.51291740563374 0 0 0
678 1 4.437139158164971 9.371509634104596 39.865070306572704 0 0 0
679 1 4.437137227270403 7.67032709803637 42.21722320751166 0 0 0
657 1 5.910401758940416 5.118553294186373 37.51291740563374 0 0 0
658 1 5.910403689834984 6.819735830254612 39.865070306572704 0 0 0
659 1 5.9104017589404165 5.118553294186374 42.21722320751166 0 0 0
857 1 8.856936323512572 5.118553294186373 37.51291740563374 0 0 0
858 1 8.856938254407133 6.819735830254612 39.865070306572704 0 0 0
859 1 8.85693632351257 5.118553294186374 42.21722320751166 0 0 0
877 1 7.383671791842554 7.67032709803637 37.51291740563374 0 0 0
878 1 7.383673722737129 9.371509634104596 39.865070306572704 0 0 0
879 1 7.383671791842554 7.67032709803637 42.21722320751166 0 0 0
1057 1 11.80347088808472 5.118553294186373 37.51291740563374 0 0 0
1058 1 11.803472818979284 6.819735830254612 39.865070306572704 0 0 0
1059 1 11.803470888084721 5.118553294186374 42.21722320751166 0 0 0
1077 1 10.330206356414708 7.67032709803637 37.51291740563374 0 0 0
1078 1 10.330208287309285 9.371509634104596 39.865070306572704 0 0 0
1079 1 10.330206356414708 7.67032709803637 42.21722320751166 0 0 0
1277 1 13.276740920986857 7.67032709803637 37.51291740563374 0 0 0
1278 1 13.276742851881423 9.371509634104596 39.865070306572704 0 0 0
1279 1 13.276740920986857 7.67032709803637 42.21722320751166 0 0 0
1257 1 14.750005452656877 5.118553294186373 37.51291740563374 0 0 0
1258 1 14.750007383551429 6.819735830254612 39.865070306572704 0 0 0
1259 1 14.750005452656879 5.118553294186374 42.21722320751166 0 0 0
1457 1 17.696540017229026 5.118553294186373 37.51291740563374 0 0 0
1458 1 17.69654194812358 6.819735830254612 39.865070306572704 0 0 0
1459 1 17.696540017229026 5.118553294186374 42.21722320751166 0 0 0
1477 1 16.22327548555901 7.67032709803637 37.51291740563374 0 0 0
1478 1 16.223277416453573 9.371509634104596 39.865070306572704 0 0 0
1479 1 16.22327548555901 7.67032709803637 42.21722320751166 0 0 0
1677 1 19.16981005013115 7.67032709803637 37.51291740563374 0 0 0
1678 1 19.169811981025713 9.371509634104596 39.865070306572704 0 0 0
1679 1 19.16981005013115 7.67032709803637 42.21722320751166 0 0 0
1657 1 20.643074581801176 5.118553294186373 37.51291740563374 0 0 0
1658 1 20.64307651269573 6.819735830254612 39.865070306572704 0 0 0
1659 1 20.643074581801176 5.118553294186374 42.21722320751166 0 0 0
1857 1 23.589609146373324 5.118553294186373 37.51291740563374 0 0 0
1858 1 23.589611077267868 6.819735830254612 39.865070306572704 0 0 0
1859 1 23.589609146373324 5.118553294186374 42.21722320751166 0 0 0
1877 1 22.116344614703305 7.67032709803637 37.51291740563374 0 0 0
1878 1 22.116346545597874 9.371509634104596 39.865070306572704 0 0 0
1879 1 22.116344614703305 7.67032709803637 42.21722320751166 0 0 0
97 1 23.589614647605448 10.222100901886359 37.51291740563374 -1 0 0
98 1 -5.8757290672214895 11.923283437954595 39.865070306572704 0 0 0
99 1 23.58961464760545 10.222100901886359 42.21722320751166 -1 0 0
117 1 22.116350115935436 12.77387470573635 37.51291740563374 -1 0 0
118 1 -7.348993598891497 14.475057241804585 39.865070306572704 0 0 0
119 1 22.116350115935436 12.77387470573635 42.21722320751166 -1 0 0
297 1 -2.9291964335439062 10.222100901886359 37.51291740563374 0 0 0
298 1 -2.9291945026493424 11.923283437954595 39.865070306572704 0 0 0
299 1 -2.9291964335439054 10.222100901886359 42.21722320751166 0 0 0
317 1 -4.402460965213926 12.77387470573635 37.51291740563374 0 0 0
318 1 -4.4024590343193495 14.475057241804585 39.865070306572704 0 0 0
319 1 -4.402460965213926 12.77387470573635 42.21722320751166 0 0 0
517 1 -1.455926400641772 12.77387470573635 37.51291740563374 0 0 0
518 1 -1.4559244697472007 14.475057241804585 39.865070306572704 0 0 0
519 1 -1.4559264006417694 12.77387470573635 42.21722320751166 0 0 0
497 1 0.017338131028242963 10.222100901886359 37.51291740563374 0 0 0
498 1 0.017340061922809933 11.923283437954595 39.865070306572704 0 0 0
499 1 0.017338131028243983 10.222100901886359 42.21722320751166 0 0 0
697 1 2.963872695600397 10.222100901886359 37.51291740563374 0 0 0
698 1 2.963874626494961 11.923283437954595 39.865070306572704 0 0 0
699 1 2.9638726956003976 10.222100901886359 42.21722320751166 0 0 0
717 1 1.4906081639303812 12.77387470573635 37.51291740563374 0 0 0
718 1 1.490610094824948 14.475057241804585 39.865070306572704 0 0 0
719 1 1.4906081639303812 12.77387470573635 42.21722320751166 0 0 0
917 1 4.4371427285025336 12.77387470573635 37.51291740563374 0 0 0
918 1 4.437144659397102 14.475057241804585 39.865070306572704 0 0 0
919 1 4.4371427285025336 12.77387470573635 42.21722320751166 0 0 0
897 1 5.910407260172544 10.222100901886359 37.51291740563374 0 0 0
898 1 5.910409191067113 11.923283437954595 39.865070306572704 0 0 0
899 1 5.910407260172544 10.222100901886359 42.21722320751166 0 0 0
1097 1 8.856941824744704 10.222100901886359 37.51291740563374 0 0 0
1098 1 8.856943755639263 11.923283437954595 39.865070306572704 0 0 0
1099 1 8.856941824744704 10.222100901886359 42.21722320751166 0 0 0
1117 1 7.383677293074681 12.77387470573635 37.51291740563374 0 0 0
1118 1 7.3836792239692475 14.475057241804585 39.865070306572704 0 0 0
1119 1 7.383677293074681 12.77387470573635 42.21722320751166 0 0 0
1297 1 11.80347638931685 10.222100901886359 37.51291740563374 0 0 0
1298 1 11.80347832021141 11.923283437954595 39.865070306572704 0 0 0
1299 1 11.80347638931685 10.222100901886359 42.21722320751166 0 0 0
1317 1 10.330211857646821 12.77387470573635 37.51291740563374 0 0 0
1318 1 10.3302137885414 14.475057241804585 39.865070306572704 0 0 0
1319 1 10.330211857646821 12.77387470573635 42.21722320751166 0 0 0
1517 1 13.27674642221899 12.77387470573635 37.51291740563374 0 0 0
1518 1 13.276748353113554 14.475057241804585 39.865070306572704 0 0 0
1519 1 13.27674642221899 12.77387470573635 42.21722320751166 0 0 0
1497 1 14.750010953889005 10.222100901886359 37.51291740563374 0 0 0
1498 1 14.750012884783557 11.923283437954595 39.865070306572704 0 0 0
1499 1 14.750010953889005 10.222100901886359 42.21722320751166 0 0 0
1697 1 17.696545518461143 10.222100901886359 37.51291740563374 0 0 0
1698 1 17.696547449355702 11.923283437954595 39.865070306572704 0 0 0
1699 1 17.696545518461143 10.222100901886359 42.21722320751166 0 0 0
1717 1 16.223280986791128 12.77387470573635 37.51291740563374 0 0 0
1718 1 16.223282917685697 14.475057241804585 39.865070306572704 0 0 0
1719 1 16.223280986791128 12.77387470573635 42.21722320751166 0 0 0
1917 1 19.16981555136329 12.77387470573635 37.51291740563374 0 0 0
1918 1 19.16981748225785 14.475057241804585 39.865070306572704 0 0 0
1919 1 19.16981555136329 12.77387470573635 42.21722320751166 0 0 0
1897 1 20.64308008303329 10.222100901886359 37.51291740563374 0 0 0
1898 1 20.643082013927845 11.923283437954595 39.865070306572704 0 0 0
1899 1 20.64308008303329 10.222100901886359 42.21722320751166 0 0 0
157 1 19.169821052595427 17.877422313436334 37.51291740563374 -1 0 0
158 1 -10.295522662231518 19.578604849504583 39.865070306572704 0 0 0
159 1 19.169821052595427 17.877422313436334 42.21722320751166 -1 0 0
137 1 20.64308558426543 15.325648509586342 37.51291740563374 -1 0 0
138 1 -8.822258130561503 17.026831045654582 39.865070306572704 0 0 0
139 1 20.64308558426543 15.325648509586342 42.21722320751166 -1 0 0
337 1 -5.875725496883929 15.325648509586342 37.51291740563374 0 0 0
338 1 -5.875723565989352 17.026831045654582 39.865070306572704 0 0 0
339 1 -5.875725496883929 15.325648509586342 42.21722320751166 0 0 0
357 1 -7.34899002855394 17.877422313436334 37.51291740563374 0 0 0
358 1 -7.348988097659365 19.578604849504583 39.865070306572704 0 0 0
359 1 -7.348990028553941 17.877422313436334 42.21722320751166 0 0 0
537 1 -2.9291909323117773 15.325648509586342 37.51291740563374 0 0 0
538 1 -2.9291890014172 17.026831045654582 39.865070306572704 0 0 0
539 1 -2.929190932311776 15.325648509586342 42.21722320751166 0 0 0
557 1 -4.402455463981785 17.877422313436334 37.51291740563374 0 0 0
558 1 -4.402453533087215 19.578604849504583 39.865070306572704 0 0 0
559 1 -4.402455463981784 17.877422313436334 42.21722320751166 0 0 0
757 1 -1.4559208994096338 17.877422313436334 37.51291740563374 0 0 0
758 1 -1.4559189685150589 19.578604849504583 39.865070306572704 0 0 0
759 1 -1.4559208994096338 17.877422313436334 42.21722320751166 0 0 0
737 1 0.01734363226037413 15.325648509586342 37.51291740563374 0 0 0
738 1 0.0173455631549562 17.026831045654582 39.865070306572704 0 0 0
739 1 0.01734363226037426 15.325648509586342 42.21722320751166 0 0 0
937 1 2.963878196832521 15.325648509586342 37.51291740563374 0 0 0
938 1 2.963880127727102 17.026831045654582 39.865070306572704 0 0 0
939 1 2.963878196832525 15.325648509586342 42.21722320751166 0 0 0
957 1 1.490613665162515 17.877422313436334 37.51291740563374 0 0 0
958 1 1.4906155960570882 19.578604849504583 39.865070306572704 0 0 0
959 1 1.490613665162515 17.877422313436334 42.21722320751166 0 0 0
1157 1 4.437148229734662 17.877422313436334 37.51291740563374 0 0 0
1158 1 4.437150160629237 19.578604849504583 39.865070306572704 0 0 0
1159 1 4.437148229734662 17.877422313436334 42.21722320751166 0 0 0
1137 1 5.910412761404672 15.325648509586342 37.51291740563374 0 0 0
1138 1 5.9104146922992395 17.026831045654582 39.865070306572704 0 0 0
1139 1 5.910412761404672 15.325648509586342 42.21722320751166 0 0 0
1337 1 8.856947325976824 15.325648509586342 37.51291740563374 0 0 0
1338 1 8.856949256871417 17.026831045654582 39.865070306572704 0 0 0
1339 1 8.856947325976824 15.325648509586342 42.21722320751166 0 0 0
1357 1 7.383682794306818 17.877422313436334 37.51291740563374 0 0 0
1358 1 7.383684725201395 19.578604849504583 39.865070306572704 0 0 0
1359 1 7.383682794306818 17.877422313436334 42.21722320751166 0 0 0
1537 1 11.803481890548971 15.325648509586342 37.51291740563374 0 0 0
1538 1 11.803483821443564 17.026831045654582 39.865070306572704 0 0 0
1539 1 11.803481890548971 15.325648509586342 42.21722320751166 0 0 0
1557 1 10.330217358878976 17.877422313436334 37.51291740563374 0 0 0
1558 1 10.330219289773542 19.578604849504583 39.865070306572704 0 0 0
1559 1 10.330217358878976 17.877422313436334 42.21722320751166 0 0 0
1757 1 13.276751923451116 17.877422313436334 37.51291740563374 0 0 0
1758 1 13.276753854345703 19.578604849504583 39.865070306572704 0 0 0
1759 1 13.276751923451116 17.877422313436334 42.21722320751166 0 0 0
1737 1 14.750016455121125 15.325648509586342 37.51291740563374 0 0 0
1738 1 14.7500183860157 17.026831045654582 39.865070306572704 0 0 0
1739 1 14.750016455121125 15.325648509586342 42.21722320751166 0 0 0
1937 1 17.69655101969327 15.325648509586342 37.51291740563374 0 0 0
1938 1 17.696552950587854 17.026831045654582 39.865070306572704 0 0 0
1939 1 17.69655101969327 15.325648509586342 42.21722320751166 0 0 0
1957 1 16.223286488023273 17.877422313436334 37.51291740563374 0 0 0
1958 1 16.223288418917836 19.578604849504583 39.865070306572704 0 0 0
1959 1 16.223286488023273 17.877422313436334 42.21722320751166 0 0 0
177 1 17.696556520925416 20.429196117286335 37.51291740563374 -1 0 0
178 1 -11.768787193901531 22.130378653354576 39.865070306572704 0 0 0
179 1 17.69655652092541 20.429196117286335 42.21722320751166 -1 0 0
197 1 16.223291989255404 22.98096992113632 37.51291740563374 -1 0 0
198 1 -13.242051725571534 24.682152457204573 39.865070306572704 0 0 0
199 1 16.223291989255404 22.98096992113632 42.21722320751166 -1 0 0
397 1 -10.295519091893949 22.98096992113632 37.51291740563374 0 0 0
398 1 -10.295517160999383 24.682152457204573 39.865070306572704 0 0 0
399 1 -10.29551909189395 22.98096992113632 42.21722320751166 0 0 0
377 1 -8.822254560223946 20.429196117286335 37.51291740563374 0 0 0
378 1 -8.82225262932938 22.130378653354576 39.865070306572704 0 0 0
379 1 -8.822254560223948 20.429196117286335 42.21722320751166 0 0 0
577 1 -5.875719995651799 20.429196117286335 37.51291740563374 0 0 0
578 1 -5.875718064757232 22.130378653354576 39.865070306572704 0 0 0
579 1 -5.875719995651798 20.429196117286335 42.21722320751166 0 0 0
597 1 -7.3489845273218055 22.98096992113632 37.51291740563374 0 0 0
598 1 -7.348982596427232 24.682152457204573 39.865070306572704 0 0 0
599 1 -7.3489845273218055 22.98096992113632 42.21722320751166 0 0 0
777 1 -2.9291854310796435 20.429196117286335 37.51291740563374 0 0 0
778 1 -2.929183500185079 22.130378653354576 39.865070306572704 0 0 0
779 1 -2.929185431079643 20.429196117286335 42.21722320751166 0 0 0
797 1 -4.402449962749657 22.98096992113632 37.51291740563374 0 0 0
798 1 -4.402448031855078 24.682152457204573 39.865070306572704 0 0 0
799 1 -4.402449962749657 22.98096992113632 42.21722320751166 0 0 0
997 1 -1.4559153981775026 22.98096992113632 37.51291740563374 0 0 0
998 1 -1.455913467282933 24.682152457204573 39.865070306572704 0 0 0
999 1 -1.4559153981775026 22.98096992113632 42.21722320751166 0 0 0
977 1 0.017349133492505296 20.429196117286335 37.51291740563374 0 0 0
978 1 0.017351064387071378 22.130378653354576 39.865070306572704 0 0 0
979 1 0.017349133492498323 20.429196117286335 42.21722320751166 0 0 0
1177 1 2.9638836980646577 20.429196117286335 37.51291740563374 0 0 0
1178 1 2.9638856289592206 22.130378653354576 39.865070306572704 0 0 0
1179 1 2.9638836980646617 20.429196117286335 42.21722320751166 0 0 0
1197 1 1.4906191663946462 22.98096992113632 37.51291740563374 0 0 0
1198 1 1.4906210972892122 24.682152457204573 39.865070306572704 0 0 0
1199 1 1.4906191663946462 22.98096992113632 42.21722320751166 0 0 0
1397 1 4.4371537309667985 22.98096992113632 37.51291740563374 0 0 0
1398 1 4.437155661861377 24.682152457204573 39.865070306572704 0 0 0
1399 1 4.4371537309667985 22.98096992113632 42.21722320751166 0 0 0
1377 1 5.91041826263681 20.429196117286335 37.51291740563374 0 0 0
1378 1 5.910420193531376 22.130378653354576 39.865070306572704 0 0 0
1379 1 5.91041826263681 20.429196117286335 42.21722320751166 0 0 0
1577 1 8.85695282720896 20.429196117286335 37.51291740563374 0 0 0
1578 1 8.856954758103527 22.130378653354576 39.865070306572704 0 0 0
1579 1 8.85695282720896 20.429196117286335 42.21722320751166 0 0 0
1597 1 7.383688295538953 22.98096992113632 37.51291740563374 0 0 0
1598 1 7.383690226433524 24.682152457204573 39.865070306572704 0 0 0
1599 1 7.383688295538953 22.98096992113632 42.21722320751166 0 0 0
1777 1 11.803487391781108 20.429196117286335 37.51291740563374 0 0 0
1778 1 11.803489322675674 22.130378653354576 39.865070306572704 0 0 0
1779 1 11.803487391781108 20.429196117286335 42.21722320751166 0 0 0
1797 1 10.330222860111103 22.98096992113632 37.51291740563374 0 0 0
1798 1 10.330224791005678 24.682152457204573 39.865070306572704 0 0 0
1799 1 10.330222860111103 22.98096992113632 42.21722320751166 0 0 0
1997 1 13.27675742468325 22.98096992113632 37.51291740563374 0 0 0
1998 1 13.276759355577815 24.682152457204573 39.865070306572704 0 0 0
1999 1 13.27675742468325 22.98096992113632 42.21722320751166 0 0 0
1977 1 14.750021956353255 20.429196117286335 37.51291740563374 0 0 0
1978 1 14.750023887247831 22.130378653354576 39.865070306572704 0 0 0
1979 1 14.750021956353255 20.429196117286335 42.21722320751166 0 0 0
40 1 -1.455935472211457 4.267962026404619 44.56937610845059 0 0 0
20 1 0.017329059458553505 1.716188222554624 44.56937610845059 0 0 0
220 1 2.963863624030704 1.716188222554624 44.56937610845059 0 0 0
240 1 1.4905990923606944 4.267962026404619 44.56937610845059 0 0 0
440 1 4.437133656932845 4.267962026404619 44.56937610845059 0 0 0
420 1 5.910398188602855 1.716188222554624 44.56937610845059 0 0 0
620 1 8.856932753175009 1.716188222554624 44.56937610845059 0 0 0
640 1 7.383668221504999 4.267962026404619 44.56937610845059 0 0 0
820 1 11.803467317747154 1.716188222554624 44.56937610845059 0 0 0
840 1 10.33020278607715 4.267962026404619 44.56937610845059 0 0 0
1040 1 13.276737350649292 4.267962026404619 44.56937610845059 0 0 0
1020 1 14.750001882319307 1.716188222554624 44.56937610845059 0 0 0
1220 1 17.696536446891464 1.716188222554624 44.56937610845059 0 0 0
1240 1 16.223271915221456 4.267962026404619 44.56937610845059 0 0 0
1440 1 19.169806479793596 4.267962026404619 44.56937610845059 0 0 0
1420 1 20.643071011463597 1.716188222554624 44.56937610845059 0 0 0
1620 1 23.58960557603575 1.716188222554624 44.56937610845059 0 0 0
1640 1 22.116341044365754 4.267962026404619 44.56937610845059 0 0 0
1820 1 26.536140140607902 1.716188222554624 44.56937610845059 0 0 0
1840 1 25.062875608937894 4.267962026404619 44.56937610845059 0 0 0
60 1 -2.9292000038814714 6.8197358302546105 44.56937610845059 0 0 0
80 1 -4.402464535551477 9.371509634104594 44.56937610845059 0 0 0
280 1 -1.4559299709793285 9.371509634104594 44.56937610845059 0 0 0
260 1 0.01733456069068112 6.8197358302546105 44.56937610845059 0 0 0
460 1 2.9638691252628306 6.8197358302546105 44.56937610845059 0 0 0
480 1 1.4906045935928225 9.371509634104594 44.56937610845059 0 0 0
680 1 4.437139158164972 9.371509634104594 44.56937610845059 0 0 0
660 1 5.910403689834985 6.8197358302546105 44.56937610845059 0 0 0
860 1 8.856938254407135 6.8197358302546105 44.56937610845059 0 0 0
880 1 7.38367372273713 9.371509634104594 44.56937610845059 0 0 0
1060 1 11.803472818979282 6.8197358302546105 44.56937610845059 0 0 0
1080 1 10.330208287309281 9.371509634104594 44.56937610845059 0 0 0
1280 1 13.276742851881421 9.371509634104594 44.56937610845059 0 0 0
1260 1 14.750007383551429 6.8197358302546105 44.56937610845059 0 0 0
1460 1 17.696541948123578 6.8197358302546105 44.56937610845059 0 0 0
1480 1 16.22327741645357 9.371509634104594 44.56937610845059 0 0 0
1680 1 19.169811981025713 9.371509634104594 44.56937610845059 0 0 0
1660 1 20.643076512695725 6.8197358302546105 44.56937610845059 0 0 0
1860 1 23.589611077267865 6.8197358302546105 44.56937610845059 0 0 0
1880 1 22.11634654559787 9.371509634104594 44.56937610845059 0 0 0
100 1 -5.875729067221489 11.923283437954593 44.56937610845059 0 0 0
120 1 -7.348993598891498 14.475057241804585 44.56937610845059 0 0 0
300 1 -2.929194502649339 11.923283437954593 44.56937610845059 0 0 0
320 1 -4.402459034319349 14.475057241804585 44.56937610845059 0 0 0
520 1 -1.4559244697471996 14.475057241804585 44.56937610845059 0 0 0
500 1 0.01734006192281273 11.923283437954593 44.56937610845059 0 0 0
700 1 2.963874626494962 11.923283437954593 44.56937610845059 0 0 0
720 1 1.4906100948249483 14.475057241804585 44.56937610845059 0 0 0
920 1 4.437144659397102 14.475057241804585 44.56937610845059 0 0 0
900 1 5.910409191067114 11.923283437954593 44.56937610845059 0 0 0
1100 1 8.85694375563926 11.923283437954593 44.56937610845059 0 0 0
1120 1 7.383679223969244 14.475057241804585 44.56937610845059 0 0 0
1300 1 11.80347832021141 11.923283437954593 44.56937610845059 0 0 0
1320 1 10.3302137885414 14.475057241804585 44.56937610845059 0 0 0
1520 1 13.27674835311355 14.475057241804585 44.56937610845059 0 0 0
1500 1 14.750012884783557 11.923283437954593 44.56937610845059 0 0 0
1700 1 17.6965474493557 11.923283437954593 44.56937610845059 0 0 0
1720 1 16.22328291768569 14.475057241804585 44.56937610845059 0 0 0
1920 1 19.169817482257844 14.475057241804585 44.56937610845059 0 0 0
1900 1 20.64308201392784 11.923283437954593 44.56937610845059 0 0 0
160 1 -10.295522662231516 19.578604849504583 44.56937610845059 0 0 0
140 1 -8.822258130561503 17.026831045654582 44.56937610845059 0 0 0
340 1 -5.87572356598935 17.026831045654582 44.56937610845059 0 0 0
360 1 -7.348988097659365 19.578604849504583 44.56937610845059 0 0 0
540 1 -2.9291890014171984 17.026831045654582 44.56937610845059 0 0 0
560 1 -4.402453533087213 19.578604849504583 44.56937610845059 0 0 0
760 1 -1.4559189685150604 19.578604849504583 44.56937610845059 0 0 0
740 1 0.01734556315495633 17.026831045654582 44.56937610845059 0 0 0
940 1 2.963880127727102 17.026831045654582 44.56937610845059 0 0 0
960 1 1.4906155960570884 19.578604849504583 44.56937610845059 0 0 0
1160 1 4.437150160629235 19.578604849504583 44.56937610845059 0 0 0
1140 1 5.910414692299236 17.026831045654582 44.56937610845059 0 0 0
1340 1 8.856949256871413 17.026831045654582 44.56937610845059 0 0 0
1360 1 7.383684725201391 19.578604849504583 44.56937610845059 0 0 0
1540 1 11.80348382144356 17.026831045654582 44.56937610845059 0 0 0
1560 1 10.330219289773538 19.578604849504583 44.56937610845059 0 0 0
1760 1 13.2767538543457 19.578604849504583 44.56937610845059 0 0 0
1740 1 14.750018386015697 17.026831045654582 44.56937610845059 0 0 0
1940 1 17.696552950587847 17.026831045654582 44.56937610845059 0 0 0
1960 1 16.22328841891783 19.578604849504583 44.56937610845059 0 0 0
180 1 -11.768787193901531 22.130378653354576 44.56937610845059 0 0 0
200 1 -13.242051725571535 24.682152457204573 44.56937610845059 0 0 0
400 1 -10.295517160999383 24.682152457204573 44.56937610845059 0 0 0
380 1 -8.82225262932938 22.130378653354576 44.56937610845059 0 0 0
580 1 -5.875718064757231 22.130378653354576 44.56937610845059 0 0 0
600 1 -7.348982596427232 24.682152457204573 44.56937610845059 0 0 0
780 1 -2.929183500185079 22.130378653354576 44.56937610845059 0 0 0
800 1 -4.402448031855078 24.682152457204573 44.56937610845059 0 0 0
1000 1 -1.4559134672829328 24.682152457204573 44.56937610845059 0 0 0
980 1 0.01735106438707151 22.130378653354576 44.56937610845059 0 0 0
1180 1 2.963885628959217 22.130378653354576 44.56937610845059 0 0 0
1200 1 1.4906210972892124 24.682152457204573 44.56937610845059 0 0 0
1400 1 4.4371556618613734 24.682152457204573 44.56937610845059 0 0 0
1380 1 5.9104201935313725 22.130378653354576 44.56937610845059 0 0 0
1580 1 8.856954758103523 22.130378653354576 44.56937610845059 0 0 0
1600 1 7.3836902264335205 24.682152457204573 44.56937610845059 0 0 0
1780 1 11.80348932267567 22.130378653354576 44.56937610845059 0 0 0
1800 1 10.330224791005675 24.682152457204573 44.56937610845059 0 0 0
2000 1 13.276759355577811 24.682152457204573 44.56937610845059 0 0 0
1980 1 14.750023887247828 22.130378653354576 44.56937610845059 0 0 0

Velocities

21 0 0 0
22 0 0 0
1 0 0 0
2 0 0 0
201 0 0 0
202 0 0 0
221 0 0 0
222 0 0 0
421 0 0 0
422 0 0 0
401 0 0 0
402 0 0 0
601 0 0 0
602 0 0 0
621 0 0 0
622 0 0 0
801 0 0 0
802 0 0 0
821 0 0 0
822 0 0 0
1021 0 0 0
1022 0 0 0
1001 0 0 0
1002 0 0 0
1201 0 0 0
1202 0 0 0
1221 0 0 0
1222 0 0 0
1421 0 0 0
1422 0 0 0
1401 0 0 0
1402 0 0 0
1601 0 0 0
1602 0 0 0
1621 0 0 0
1622 0 0 0
1801 0 0 0
1802 0 0 0
1821 0 0 0
1822 0 0 0
41 0 0 0
42 0 0 0
61 0 0 0
62 0 0 0
261 0 0 0
262 0 0 0
241 0 0 0
242 0 0 0
441 0 0 0
442 0 0 0
461 0 0 0
462 0 0 0
661 0 0 0
662 0 0 0
641 0 0 0
642 0 0 0
841 0 0 0
842 0 0 0
861 0 0 0
862 0 0 0
1041 0 0 0
1042 0 0 0
1061 0 0 0
1062 0 0 0
1261 0 0 0
1262 0 0 0
1241 0 0 0
1242 0 0 0
1441 0 0 0
1442 0 0 0
1461 0 0 0
1462 0 0 0
1661 0 0 0
1662 0 0 0
1641 0 0 0
1642 0 0 0
1841 0 0 0
1842 0 0 0
1861 0 0 0
1862 0 0 0
81 0 0 0
82 0 0 0
101 0 0 0
102 0 0 0
281 0 0 0
282 0 0 0
301 0 0 0
302 0 0 0
501 0 0 0
502 0 0 0
481 0 0 0
482 0 0 0
681 0 0 0
682 0 0 0
701 0 0 0
702 0 0 0
901 0 0 0
902 0 0 0
881 0 0 0
882 0 0 0
1081 0 0 0
1082 0 0 0
1101 0 0 0
1102 0 0 0
1281 0 0 0
1282 0 0 0
1301 0 0 0
1302 0 0 0
1501 0 0 0
1502 0 0 0
1481 0 0 0
1482 0 0 0
1681 0 0 0
1682 0 0 0
1701 0 0 0
1702 0 0 0
1901 0 0 0
1902 0 0 0
1881 0 0 0
1882 0 0 0
141 0 0 0
142 0 0 0
121 0 0 0
122 0 0 0
321 0 0 0
322 0 0 0
341 0 0 0
342 0 0 0
521 0 0 0
522 0 0 0
541 0 0 0
542 0 0 0
741 0 0 0
742 0 0 0
721 0 0 0
722 0 0 0
921 0 0 0
922 0 0 0
941 0 0 0
942 0 0 0
1141 0 0 0
1142 0 0 0
1121 0 0 0
1122 0 0 0
1321 0 0 0
1322 0 0 0
1341 0 0 0
1342 0 0 0
1521 0 0 0
1522 0 0 0
1541 0 0 0
1542 0 0 0
1741 0 0 0
1742 0 0 0
1721 0 0 0
1722 0 0 0
1921 0 0 0
1922 0 0 0
1941 0 0 0
1942 0 0 0
161 0 0 0
162 0 0 0
181 0 0 0
182 0 0 0
381 0 0 0
382 0 0 0
361 0 0 0
362 0 0 0
561 0 0 0
562 0 0 0
581 0 0 0
582 0 0 0
761 0 0 0
762 0 0 0
781 0 0 0
782 0 0 0
981 0 0 0
982 0 0 0
961 0 0 0
962 0 0 0
1161 0 0 0
1162 0 0 0
1181 0 0 0
1182 0 0 0
1381 0 0 0
1382 0 0 0
1361 0 0 0
1362 0 0 0
1561 0 0 0
1562 0 0 0
1581 0 0 0
1582 0 0 0
1761 0 0 0
1762 0 0 0
1781 0 0 0
1782 0 0 0
1981 0 0 0
1982 0 0 0
1961 0 0 0
1962 0 0 0
23 0 0 0
24 0 0 0
3 0 0 0
4 0 0 0
203 0 0 0
204 0 0 0
223 0 0 0
224 0 0 0
423 0 0 0
424 0 0 0
403 0 0 0
404 0 0 0
603 0 0 0
604 0 0 0
623 0 0 0
624 0 0 0
803 0 0 0
804 0 0 0
823 0 0 0
824 0 0 0
1023 0 0 0
1024 0 0 0
1003 0 0 0
1004 0 0 0
1203 0 0 0
1204 0 0 0
1223 0 0 0
1224 0 0 0
1423 0 0 0
1424 0 0 0
1403 0 0 0
1404 0 0 0
1603 0 0 0
1604 0 0 0
1623 0 0 0
1624 0 0 0
1803 0 0 0
1804 0 0 0
1823 0 0 0
1824 0 0 0
43 0 0 0
44 0 0 0
63 0 0 0
64 0 0 0
263 0 0 0
264 0 0 0
243 0 0 0
244 0 0 0
443 0 0 0
444 0 0 0
463 0 0 0
464 0 0 0
663 0 0 0
664 0 0 0
643 0 0 0
644 0 0 0
843 0 0 0
844 0 0 0
863 0 0 0
864 0 0 0
1043 0 0 0
1044 0 0 0
1063 0 0 0
1064 0 0 0
1263 0 0 0
1264 0 0 0
1243 0 0 0
1244 0 0 0
1443 0 0 0
1444 0 0 0
1463 0 0 0
1464 0 0 0
1663 0 0 0
1664 0 0 0
1643 0 0 0
1644 0 0 0
1843 0 0 0
1844 0 0 0
1863 0 0 0
1864 0 0 0
83 0 0 0
84 0 0 0
103 0 0 0
104 0 0 0
283 0 0 0
284 0 0 0
303 0 0 0
304 0 0 0
503 0 0 0
504 0 0 0
483 0 0 0
484 0 0 0
683 0 0 0
684 0 0 0
703 0 0 0
704 0 0 0
903 0 0 0
904 0 0 0
883 0 0 0
884 0 0 0
1083 0 0 0
1084 0 0 0
1103 0 0 0
1104 0 0 0
1283 0 0 0
1284 0 0 0
1303 0 0 0
1304 0 0 0
1503 0 0 0
1504 0 0 0
1483 0 0 0
1484 0 0 0
1683 0 0 0
1684 0 0 0
1703 0 0 0
1704 0 0 0
1903 0 0 0
1904 0 0 0
1883 0 0 0
1884 0 0 0
143 0 0 0
144 0 0 0
123 0 0 0
124 0 0 0
323 0 0 0
324 0 0 0
343 0 0 0
344 0 0 0
523 0 0 0
524 0 0 0
543 0 0 0
544 0 0 0
743 0 0 0
744 0 0 0
723 0 0 0
724 0 0 0
923 0 0 0
924 0 0 0
943 0 0 0
944 0 0 0
1143 0 0 0
1144 0 0 0
1123 0 0 0
1124 0 0 0
1323 0 0 0
1324 0 0 0
1343 0 0 0
1344 0 0 0
1523 0 0 0
1524 0 0 0
1543 0 0 0
1544 0 0 0
1743 0 0 0
1744 0 0 0
1723 0 0 0
1724 0 0 0
1923 0 0 0
1924 0 0 0
1943 0 0 0
1944 0 0 0
163 0 0 0
164 0 0 0
183 0 0 0
184 0 0 0
383 0 0 0
384 0 0 0
363 0 0 0
364 0 0 0
563 0 0 0
564 0 0 0
583 0 0 0
584 0 0 0
763 0 0 0
764 0 0 0
783 0 0 0
784 0 0 0
983 0 0 0
984 0 0 0
963 0 0 0
964 0 0 0
1163 0 0 0
1164 0 0 0
1183 0 0 0
1184 0 0 0
1383 0 0 0
1384 0 0 0
1363 0 0 0
1364 0 0 0
1563 0 0 0
1564 0 0 0
1583 0 0 0
1584 0 0 0
1763 0 0 0
1764 0 0 0
1783 0 0 0
1784 0 0 0
1983 0 0 0
1984 0 0 0
1963 0 0 0
1964 0 0 0
25 0 0 0
26 0 0 0
5 0 0 0
6 0 0 0
205 0 0 0
206 0 0 0
225 0 0 0
226 0 0 0
425 0 0 0
426 0 0 0
405 0 0 0
406 0 0 0
605 0 0 0
606 0 0 0
625 0 0 0
626 0 0 0
805 0 0 0
806 0 0 0
825 0 0 0
826 0 0 0
1025 0 0 0
1026 0 0 0
1005 0 0 0
1006 0 0 0
1205 0 0 0
1206 0 0 0
1225 0 0 0
1226 0 0 0
1425 0 0 0
1426 0 0 0
1405 0 0 0
1406 0 0 0
1605 0 0 0
1606 0 0 0
1625 0 0 0
1626 0 0 0
1805 0 0 0
1806 0 0 0
1825 0 0 0
1826 0 0 0
45 0 0 0
46 0 0 0
65 0 0 0
66 0 0 0
265 0 0 0
266 0 0 0
245 0 0 0
246 0 0 0
445 0 0 0
446 0 0 0
465 0 0 0
466 0 0 0
665 0 0 0
666 0 0 0
645 0 0 0
646 0 0 0
845 0 0 0
846 0 0 0
865 0 0 0
866 0 0 0
1045 0 0 0
1046 0 0 0
1065 0 0 0
1066 0 0 0
1265 0 0 0
1266 0 0 0
1245 0 0 0
1246 0 0 0
1445 0 0 0
1446 0 0 0
1465 0 0 0
1466 0 0 0
1665 0 0 0
1666 0 0 0
1645 0 0 0
1646 0 0 0
1845 0 0 0
1846 0 0 0
1865 0 0 0
1866 0 0 0
85 0 0 0
86 0 0 0
105 0 0 0
106 0 0 0
285 0 0 0
286 0 0 0
305 0 0 0
306 0 0 0
505 0 0 0
506 0 0 0
485 0 0 0
486 0 0 0
685 0 0 0
686 0 0 0
705 0 0 0
706 0 0 0
905 0 0 0
906 0 0 0
885 0 0 0
886 0 0 0
1085 0 0 0
1086 0 0 0
1105 0 0 0
1106 0 0 0
1285 0 0 0
1286 0 0 0
1305 0 0 0
1306 0 0 0
1505 0 0 0
1506 0 0 0
1485 0 0 0
1486 0 0 0
1685 0 0 0
1686 0 0 0
1705 0 0 0
1706 0 0 0
1905 0 0 0
1906 0 0 0
1885 0 0 0
1886 0 0 0
145 0 0 0
146 0 0 0
125 0 0 0
126 0 0 0
325 0 0 0
326 0 0 0
345 0 0 0
346 0 0 0
525 0 0 0
526 0 0 0
545 0 0 0
546 0 0 0
745 0 0 0
746 0 0 0
725 0 0 0
726 0 0 0
925 0 0 0
926 0 0 0
945 0 0 0
946 0 0 0
1145 0 0 0
1146 0 0 0
1125 0 0 0
1126 0 0 0
1325 0 0 0
1326 0 0 0
1345 0 0 0
1346 0 0 0
1525 0 0 0
1526 0 0 0
1545 0 0 0
1546 0 0 0
1745 0 0 0
1746 0 0 0
1725 0 0 0
1726 0 0 0
1925 0 0 0
1926 0 0 0
1945 0 0 0
1946 0 0 0
165 0 0 0
166 0 0 0
185 0 0 0
186 0 0 0
385 0 0 0
386 0 0 0
365 0 0 0
366 0 0 0
565 0 0 0
566 0 0 0
585 0 0 0
586 0 0 0
765 0 0 0
766 0 0 0
785 0 0 0
786 0 0 0
985 0 0 0
986 0 0 0
965 0 0 0
966 0 0 0
1165 0 0 0
1166 0 0 0
1185 0 0 0
1186 0 0 0
1385 0 0 0
1386 0 0 0
1365 0 0 0
1366 0 0 0
1565 0 0 0
1566 0 0 0
1585 0 0 0
1586 0 0 0
1765 0 0 0
1766 0 0 0
1785 0 0 0
1786 0 0 0
1985 0 0 0
1986 0 0 0
1965 0 0 0
1966 0 0 0
27 0 0 0
28 0 0 0
7 0 0 0
8 0 0 0
207 0 0 0
208 0 0 0
227 0 0 0
228 0 0 0
427 0 0 0
428 0 0 0
407 0 0 0
408 0 0 0
607 0 0 0
608 0 0 0
627 0 0 0
628 0 0 0
807 0 0 0
808 0 0 0
827 0 0 0
828 0 0 0
1027 0 0 0
1028 0 0 0
1007 0 0 0
1008 0 0 0
1207 0 0 0
1208 0 0 0
1227 0 0 0
1228 0 0 0
1427 0 0 0
1428 0 0 0
1407 0 0 0
1408 0 0 0
1607 0 0 0
1608 0 0 0
1627 0 0 0
1628 0 0 0
1807 0 0 0
1808 0 0 0
1827 0 0 0
1828 0 0 0
47 0 0 0
48 0 0 0
67 0 0 0
68 0 0 0
267 0 0 0
268 0 0 0
247 0 0 0
248 0 0 0
447 0 0 0
448 0 0 0
467 0 0 0
468 0 0 0
667 0 0 0
668 0 0 0
647 0 0 0
648 0 0 0
847 0 0 0
848 0 0 0
867 0 0 0
868 0 0 0
1047 0 0 0
1048 0 0 0
1067 0 0 0
1068 0 0 0
1267 0 0 0
1268 0 0 0
1247 0 0 0
1248 0 0 0
1447 0 0 0
1448 0 0 0
1467 0 0 0
1468 0 0 0
1667 0 0 0
1668 0 0 0
1647 0 0 0
1648 0 0 0
1847 0 0 0
1848 0 0 0
1867 0 0 0
1868 0 0 0
87 0 0 0
88 0 0 0
107 0 0 0
108 0 0 0
287 0 0 0
288 0 0 0
307 0 0 0
308 0 0 0
507 0 0 0
508 0 0 0
487 0 0 0
488 0 0 0
687 0 0 0
688 0 0 0
707 0 0 0
708 0 0 0
907 0 0 0
908 0 0 0
887 0 0 0
888 0 0 0
1087 0 0 0
1088 0 0 0
1107 0 0 0
1108 0 0 0
1287 0 0 0
1288 0 0 0
1307 0 0 0
1308 0 0 0
1507 0 0 0
1508 0 0 0
1487 0 0 0
1488 0 0 0
1687 0 0 0
1688 0 0 0
1707 0 0 0
1708 0 0 0
1907 0 0 0
1908 0 0 0
1887 0 0 0
1888 0 0 0
147 0 0 0
148 0 0 0
127 0 0 0
128 0 0 0
327 0 0 0
328 0 0 0
347 0 0 0
348 0 0 0
527 0 0 0
528 0 0 0
547 0 0 0
548 0 0 0
747 0 0 0
748 0 0 0
727 0 0 0
728 0 0 0
927 0 0 0
928 0 0 0
947 0 0 0
948 0 0 0
1147 0 0 0
1148 0 0 0
1127 0 0 0
1128 0 0 0
1327 0 0 0
1328 0 0 0
1347 0 0 0
1348 0 0 0
1527 0 0 0
1528 0 0 0
1547 0 0 0
1548 0 0 0
1747 0 0 0
1748 0 0 0
1727 0 0 0
1728 0 0 0
1927 0 0 0
1928 0 0 0
1947 0 0 0
1948 0 0 0
167 0 0 0
168 0 0 0
187 0 0 0
188 0 0 0
387 0 0 0
388 0 0 0
367 0 0 0
368 0 0 0
567 0 0 0
568 0 0 0
587 0 0 0
588 0 0 0
767 0 0 0
768 0 0 0
787 0 0 0
788 0 0 0
987 0 0 0
988 0 0 0
967 0 0 0
968 0 0 0
1167 0 0 0
1168 0 0 0
1187 0 0 0
1188 0 0 0
1387 0 0 0
1388 0 0 0
1367 0 0 0
1368 0 0 0
1567 0 0 0
1568 0 0 0
1587 0 0 0
1588 0 0 0
1767 0 0 0
1768 0 0 0
1787 0 0 0
1788 0 0 0
1987 0 0 0
1988 0 0 0
1967 0 0 0
1968 0 0 0
29 0 0 0
30 0 0 0
9 0 0 0
10 0 0 0
209 0 0 0
210 0 0 0
229 0 0 0
230 0 0 0
429 0 0 0
430 0 0 0
409 0 0 0
410 0 0 0
609 0 0 0
610 0 0 0
629 0 0 0
630 0 0 0
809 0 0 0
810 0 0 0
829 0 0 0
830 0 0 0
1029 0 0 0
1030 0 0 0
1009 0 0 0
1010 0 0 0
1209 0 0 0
1210 0 0 0
1229 0 0 0
1230 0 0 0
1429 0 0 0
1430 0 0 0
1409 0 0 0
1410 0 0 0
1609 0 0 0
1610 0 0 0
1629 0 0 0
1630 0 0 0
1809 0 0 0
1810 0 0 0
1829 0 0 0
1830 0 0 0
49 0 0 0
50 0 0 0
69 0 0 0
70 0 0 0
269 0 0 0
270 0 0 0
249 0 0 0
250 0 0 0
449 0 0 0
450 0 0 0
469 0 0 0
470 0 0 0
669 0 0 0
670 0 0 0
649 0 0 0
650 0 0 0
849 0 0 0
850 0 0 0
869 0 0 0
870 0 0 0
1049 0 0 0
1050 0 0 0
1069 0 0 0
1070 0 0 0
1269 0 0 0
1270 0 0 0
1249 0 0 0
1250 0 0 0
1449 0 0 0
1450 0 0 0
1469 0 0 0
1470 0 0 0
1669 0 0 0
1670 0 0 0
1649 0 0 0
1650 0 0 0
1849 0 0 0
1850 0 0 0
1869 0 0 0
1870 0 0 0
89 0 0 0
90 0 0 0
109 0 0 0
110 0 0 0
289 0 0 0
290 0 0 0
309 0 0 0
310 0 0 0
509 0 0 0
510 0 0 0
489 0 0 0
490 0 0 0
689 0 0 0
690 0 0 0
709 0 0 0
710 0 0 0
909 0 0 0
910 0 0 0
889 0 0 0
890 0 0 0
1089 0 0 0
1090 0 0 0
1109 0 0 0
1110 0 0 0
1289 0 0 0
1290 0 0 0
1309 0 0 0
1310 0 0 0
1509 0 0 0
1510 0 0 0
1489 0 0 0
1490 0 0 0
1689 0 0 0
1690 0 0 0
1709 0 0 0
1710 0 0 0
1909 0 0 0
1910 0 0 0
1889 0 0 0
1890 0 0 0
149 0 0 0
150 0 0 0
129 0 0 0
130 0 0 0
329 0 0 0
330 0 0 0
349 0 0 0
350 0 0 0
529 0 0 0
530 0 0 0
549 0 0 0
550 0 0 0
749 0 0 0
750 0 0 0
729 0 0 0
730 0 0 0
929 0 0 0
930 0 0 0
949 0 0 0
950 0 0 0
1149 0 0 0
1150 0 0 0
1129 0 0 0
1130 0 0 0
1329 0 0 0
1330 0 0 0
1349 0 0 0
1350 0 0 0
1529 0 0 0
1530 0 0 0
1549 0 0 0
1550 0 0 0
1749 0 0 0
1750 0 0 0
1729 0 0 0
1730 0 0 0
1929 0 0 0
1930 0 0 0
1949 0 0 0
1950 0 0 0
169 0 0 0
170 0 0 0
189 0 0 0
190 0 0 0
389 0 0 0
390 0 0 0
369 0 0 0
370 0 0 0
569 0 0 0
570 0 0 0
589 0 0 0
590 0 0 0
769 0 0 0
770 0 0 0
789 0 0 0
790 0 0 0
989 0 0 0
990 0 0 0
969 0 0 0
970 0 0 0
1169 0 0 0
1170 0 0 0
1189 0 0 0
1190 0 0 0
1389 0 0 0
1390 0 0 0
1369 0 0 0
1370 0 0 0
1569 0 0 0
1570 0 0 0
1589 0 0 0
1590 0 0 0
1769 0 0 0
1770 0 0 0
1789 0 0 0
1790 0 0 0
1989 0 0 0
1990 0 0 0
1969 0 0 0
1970 0 0 0
31 0 0 0
32 0 0 0
11 0 0 0
12 0 0 0
211 0 0 0
212 0 0 0
231 0 0 0
232 0 0 0
431 0 0 0
432 0 0 0
411 0 0 0
412 0 0 0
611 0 0 0
612 0 0 0
631 0 0 0
632 0 0 0
811 0 0 0
812 0 0 0
831 0 0 0
832 0 0 0
1031 0 0 0
1032 0 0 0
1011 0 0 0
1012 0 0 0
1211 0 0 0
1212 0 0 0
1231 0 0 0
1232 0 0 0
1431 0 0 0
1432 0 0 0
1411 0 0 0
1412 0 0 0
1611 0 0 0
1612 0 0 0
1631 0 0 0
1632 0 0 0
1811 0 0 0
1812 0 0 0
1831 0 0 0
1832 0 0 0
51 0 0 0
52 0 0 0
71 0 0 0
72 0 0 0
271 0 0 0
272 0 0 0
251 0 0 0
252 0 0 0
451 0 0 0
452 0 0 0
471 0 0 0
472 0 0 0
671 0 0 0
672 0 0 0
651 0 0 0
652 0 0 0
851 0 0 0
852 0 0 0
871 0 0 0
872 0 0 0
1051 0 0 0
1052 0 0 0
1071 0 0 0
1072 0 0 0
1271 0 0 0
1272 0 0 0
1251 0 0 0
1252 0 0 0
1451 0 0 0
1452 0 0 0
1471 0 0 0
1472 0 0 0
1671 0 0 0
1672 0 0 0
1651 0 0 0
1652 0 0 0
1851 0 0 0
1852 0 0 0
1871 0 0 0
1872 0 0 0
91 0 0 0
92 0 0 0
111 0 0 0
112 0 0 0
291 0 0 0
292 0 0 0
311 0 0 0
312 0 0 0
511 0 0 0
512 0 0 0
491 0 0 0
492 0 0 0
691 0 0 0
692 0 0 0
711 0 0 0
712 0 0 0
911 0 0 0
912 0 0 0
891 0 0 0
892 0 0 0
1091 0 0 0
1092 0 0 0
1111 0 0 0
1112 0 0 0
1291 0 0 0
1292 0 0 0
1311 0 0 0
1312 0 0 0
1511 0 0 0
1512 0 0 0
1491 0 0 0
1492 0 0 0
1691 0 0 0
1692 0 0 0
1711 0 0 0
1712 0 0 0
1911 0 0 0
1912 0 0 0
1891 0 0 0
1892 0 0 0
151 0 0 0
152 0 0 0
131 0 0 0
132 0 0 0
331 0 0 0
332 0 0 0
351 0 0 0
352 0 0 0
531 0 0 0
532 0 0 0
551 0 0 0
552 0 0 0
751 0 0 0
752 0 0 0
731 0 0 0
732 0 0 0
931 0 0 0
932 0 0 0
951 0 0 0
952 0 0 0
1151 0 0 0
1152 0 0 0
1131 0 0 0
1132 0 0 0
1331 0 0 0
1332 0 0 0
1351 0 0 0
1352 0 0 0
1531 0 0 0
1532 0 0 0
1551 0 0 0
1552 0 0 0
1751 0 0 0
1752 0 0 0
1731 0 0 0
1732 0 0 0
1931 0 0 0
1932 0 0 0
1951 0 0 0
1952 0 0 0
171 0 0 0
172 0 0 0
191 0 0 0
192 0 0 0
391 0 0 0
392 0 0 0
371 0 0 0
372 0 0 0
571 0 0 0
572 0 0 0
591 0 0 0
592 0 0 0
771 0 0 0
772 0 0 0
791 0 0 0
792 0 0 0
991 0 0 0
992 0 0 0
971 0 0 0
972 0 0 0
1171 0 0 0
1172 0 0 0
1191 0 0 0
1192 0 0 0
1391 0 0 0
1392 0 0 0
1371 0 0 0
1372 0 0 0
1571 0 0 0
1572 0 0 0
1591 0 0 0
1592 0 0 0
1771 0 0 0
1772 0 0 0
1791 0 0 0
1792 0 0 0
1991 0 0 0
1992 0 0 0
1971 0 0 0
1972 0 0 0
33 0 0 0
34 0 0 0
13 0 0 0
14 0 0 0
213 0 0 0
214 0 0 0
233 0 0 0
234 0 0 0
433 0 0 0
434 0 0 0
413 0 0 0
414 0 0 0
613 0 0 0
614 0 0 0
633 0 0 0
634 0 0 0
813 0 0 0
814 0 0 0
833 0 0 0
834 0 0 0
1033 0 0 0
1034 0 0 0
1013 0 0 0
1014 0 0 0
1213 0 0 0
1214 0 0 0
1233 0 0 0
1234 0 0 0
1433 0 0 0
1434 0 0 0
1413 0 0 0
1414 0 0 0
1613 0 0 0
1614 0 0 0
1633 0 0 0
1634 0 0 0
1813 0 0 0
1814 0 0 0
1833 0 0 0
1834 0 0 0
53 0 0 0
54 0 0 0
73 0 0 0
74 0 0 0
273 0 0 0
274 0 0 0
253 0 0 0
254 0 0 0
453 0 0 0
454 0 0 0
473 0 0 0
474 0 0 0
673 0 0 0
674 0 0 0
653 0 0 0
654 0 0 0
853 0 0 0
854 0 0 0
873 0 0 0
874 0 0 0
1053 0 0 0
1054 0 0 0
1073 0 0 0
1074 0 0 0
1273 0 0 0
1274 0 0 0
1253 0 0 0
1254 0 0 0
1453 0 0 0
1454 0 0 0
1473 0 0 0
1474 0 0 0
1673 0 0 0
1674 0 0 0
1653 0 0 0
1654 0 0 0
1853 0 0 0
1854 0 0 0
1873 0 0 0
1874 0 0 0
93 0 0 0
94 0 0 0
113 0 0 0
114 0 0 0
293 0 0 0
294 0 0 0
313 0 0 0
314 0 0 0
513 0 0 0
514 0 0 0
493 0 0 0
494 0 0 0
693 0 0 0
694 0 0 0
713 0 0 0
714 0 0 0
913 0 0 0
914 0 0 0
893 0 0 0
894 0 0 0
1093 0 0 0
1094 0 0 0
1113 0 0 0
1114 0 0 0
1293 0 0 0
1294 0 0 0
1313 0 0 0
1314 0 0 0
1513 0 0 0
1514 0 0 0
1493 0 0 0
1494 0 0 0
1693 0 0 0
1694 0 0 0
1713 0 0 0
1714 0 0 0
1913 0 0 0
1914 0 0 0
1893 0 0 0
1894 0 0 0
153 0 0 0
154 0 0 0
133 0 0 0
134 0 0 0
333 0 0 0
334 0 0 0
353 0 0 0
354 0 0 0
533 0 0 0
534 0 0 0
553 0 0 0
554 0 0 0
753 0 0 0
754 0 0 0
733 0 0 0
734 0 0 0
933 0 0 0
934 0 0 0
953 0 0 0
954 0 0 0
1153 0 0 0
1154 0 0 0
1133 0 0 0
1134 0 0 0
1333 0 0 0
1334 0 0 0
1353 0 0 0
1354 0 0 0
1533 0 0 0
1534 0 0 0
1553 0 0 0
1554 0 0 0
1753 0 0 0
1754 0 0 0
1733 0 0 0
1734 0 0 0
1933 0 0 0
1934 0 0 0
1953 0 0 0
1954 0 0 0
173 0 0 0
174 0 0 0
193 0 0 0
194 0 0 0
393 0 0 0
394 0 0 0
373 0 0 0
374 0 0 0
573 0 0 0
574 0 0 0
593 0 0 0
594 0 0 0
773 0 0 0
774 0 0 0
793 0 0 0
794 0 0 0
993 0 0 0
994 0 0 0
973 0 0 0
974 0 0 0
1173 0 0 0
1174 0 0 0
1193 0 0 0
1194 0 0 0
1393 0 0 0
1394 0 0 0
1373 0 0 0
1374 0 0 0
1573 0 0 0
1574 0 0 0
1593 0 0 0
1594 0 0 0
1773 0 0 0
1774 0 0 0
1793 0 0 0
1794 0 0 0
1993 0 0 0
1994 0 0 0
1973 0 0 0
1974 0 0 0
35 0 0 0
36 0 0 0
15 0 0 0
16 0 0 0
215 0 0 0
216 0 0 0
235 0 0 0
236 0 0 0
435 0 0 0
436 0 0 0
415 0 0 0
416 0 0 0
615 0 0 0
616 0 0 0
635 0 0 0
636 0 0 0
815 0 0 0
816 0 0 0
835 0 0 0
836 0 0 0
1035 0 0 0
1036 0 0 0
1015 0 0 0
1016 0 0 0
1215 0 0 0
1216 0 0 0
1235 0 0 0
1236 0 0 0
1435 0 0 0
1436 0 0 0
1415 0 0 0
1416 0 0 0
1615 0 0 0
1616 0 0 0
1635 0 0 0
1636 0 0 0
1815 0 0 0
1816 0 0 0
1835 0 0 0
1836 0 0 0
55 0 0 0
56 0 0 0
75 0 0 0
76 0 0 0
275 0 0 0
276 0 0 0
255 0 0 0
256 0 0 0
455 0 0 0
456 0 0 0
475 0 0 0
476 0 0 0
675 0 0 0
676 0 0 0
655 0 0 0
656 0 0 0
855 0 0 0
856 0 0 0
875 0 0 0
876 0 0 0
1055 0 0 0
1056 0 0 0
1075 0 0 0
1076 0 0 0
1275 0 0 0
1276 0 0 0
1255 0 0 0
1256 0 0 0
1455 0 0 0
1456 0 0 0
1475 0 0 0
1476 0 0 0
1675 0 0 0
1676 0 0 0
1655 0 0 0
1656 0 0 0
1855 0 0 0
1856 0 0 0
1875 0 0 0
1876 0 0 0
95 0 0 0
96 0 0 0
115 0 0 0
116 0 0 0
295 0 0 0
296 0 0 0
315 0 0 0
316 0 0 0
515 0 0 0
516 0 0 0
495 0 0 0
496 0 0 0
695 0 0 0
696 0 0 0
715 0 0 0
716 0 0 0
915 0 0 0
916 0 0 0
895 0 0 0
896 0 0 0
1095 0 0 0
1096 0 0 0
1115 0 0 0
1116 0 0 0
1295 0 0 0
1296 0 0 0
1315 0 0 0
1316 0 0 0
1515 0 0 0
1516 0 0 0
1495 0 0 0
1496 0 0 0
1695 0 0 0
1696 0 0 0
1715 0 0 0
1716 0 0 0
1915 0 0 0
1916 0 0 0
1895 0 0 0
1896 0 0 0
155 0 0 0
156 0 0 0
135 0 0 0
136 0 0 0
335 0 0 0
336 0 0 0
355 0 0 0
356 0 0 0
535 0 0 0
536 0 0 0
555 0 0 0
556 0 0 0
755 0 0 0
756 0 0 0
735 0 0 0
736 0 0 0
935 0 0 0
936 0 0 0
955 0 0 0
956 0 0 0
1155 0 0 0
1156 0 0 0
1135 0 0 0
1136 0 0 0
1335 0 0 0
1336 0 0 0
1355 0 0 0
1356 0 0 0
1535 0 0 0
1536 0 0 0
1555 0 0 0
1556 0 0 0
1755 0 0 0
1756 0 0 0
1735 0 0 0
1736 0 0 0
1935 0 0 0
1936 0 0 0
1955 0 0 0
1956 0 0 0
175 0 0 0
176 0 0 0
195 0 0 0
196 0 0 0
395 0 0 0
396 0 0 0
375 0 0 0
376 0 0 0
575 0 0 0
576 0 0 0
595 0 0 0
596 0 0 0
775 0 0 0
776 0 0 0
795 0 0 0
796 0 0 0
995 0 0 0
996 0 0 0
975 0 0 0
976 0 0 0
1175 0 0 0
1176 0 0 0
1195 0 0 0
1196 0 0 0
1395 0 0 0
1396 0 0 0
1375 0 0 0
1376 0 0 0
1575 0 0 0
1576 0 0 0
1595 0 0 0
1596 0 0 0
1775 0 0 0
1776 0 0 0
1795 0 0 0
1796 0 0 0
1995 0 0 0
1996 0 0 0
1975 0 0 0
1976 0 0 0
37 0 0 0
38 0 0 0
39 0 0 0
17 0 0 0
18 0 0 0
19 0 0 0
217 0 0 0
218 0 0 0
219 0 0 0
237 0 0 0
238 0 0 0
239 0 0 0
437 0 0 0
438 0 0 0
439 0 0 0
417 0 0 0
418 0 0 0
419 0 0 0
617 0 0 0
618 0 0 0
619 0 0 0
637 0 0 0
638 0 0 0
639 0 0 0
817 0 0 0
818 0 0 0
819 0 0 0
837 0 0 0
838 0 0 0
839 0 0 0
1037 0 0 0
1038 0 0 0
1039 0 0 0
1017 0 0 0
1018 0 0 0
1019 0 0 0
1217 0 0 0
1218 0 0 0
1219 0 0 0
1237 0 0 0
1238 0 0 0
1239 0 0 0
1437 0 0 0
1438 0 0 0
1439 0 0 0
1417 0 0 0
1418 0 0 0
1419 0 0 0
1617 0 0 0
1618 0 0 0
1619 0 0 0
1637 0 0 0
1638 0 0 0
1639 0 0 0
1817 0 0 0
1818 0 0 0
1819 0 0 0
1837 0 0 0
1838 0 0 0
1839 0 0 0
57 0 0 0
58 0 0 0
59 0 0 0
77 0 0 0
78 0 0 0
79 0 0 0
277 0 0 0
278 0 0 0
279 0 0 0
257 0 0 0
258 0 0 0
259 0 0 0
457 0 0 0
458 0 0 0
459 0 0 0
477 0 0 0
478 0 0 0
479 0 0 0
677 0 0 0
678 0 0 0
679 0 0 0
657 0 0 0
658 0 0 0
659 0 0 0
857 0 0 0
858 0 0 0
859 0 0 0
877 0 0 0
878 0 0 0
879 0 0 0
1057 0 0 0
1058 0 0 0
1059 0 0 0
1077 0 0 0
1078 0 0 0
1079 0 0 0
1277 0 0 0
1278 0 0 0
1279 0 0 0
1257 0 0 0
1258 0 0 0
1259 0 0 0
1457 0 0 0
1458 0 0 0
1459 0 0 0
1477 0 0 0
1478 0 0 0
1479 0 0 0
1677 0 0 0
1678 0 0 0
1679 0 0 0
1657 0 0 0
1658 0 0 0
1659 0 0 0
1857 0 0 0
1858 0 0 0
1859 0 0 0
1877 0 0 0
1878 0 0 0
1879 0 0 0
97 0 0 0
98 0 0 0
99 0 0 0
117 0 0 0
118 0 0 0
119 0 0 0
297 0 0 0
298 0 0 0
299 0 0 0
317 0 0 0
318 0 0 0
319 0 0 0
517 0 0 0
518 0 0 0
519 0 0 0
497 0 0 0
498 0 0 0
499 0 0 0
697 0 0 0
698 0 0 0
699 0 0 0
717 0 0 0
718 0 0 0
719 0 0 0
917 0 0 0
918 0 0 0
919 0 0 0
897 0 0 0
898 0 0 0
899 0 0 0
1097 0 0 0
1098 0 0 0
1099 0 0 0
1117 0 0 0
1118 0 0 0
1119 0 0 0
1297 0 0 0
1298 0 0 0
1299 0 0 0
1317 0 0 0
1318 0 0 0
1319 0 0 0
1517 0 0 0
1518 0 0 0
1519 0 0 0
1497 0 0 0
1498 0 0 0
1499 0 0 0
1697 0 0 0
1698 0 0 0
1699 0 0 0
1717 0 0 0
1718 0 0 0
1719 0 0 0
1917 0 0 0
1918 0 0 0
1919 0 0 0
1897 0 0 0
1898 0 0 0
1899 0 0 0
157 0 0 0
158 0 0 0
159 0 0 0
137 0 0 0
138 0 0 0
139 0 0 0
337 0 0 0
338 0 0 0
339 0 0 0
357 0 0 0
358 0 0 0
359 0 0 0
537 0 0 0
538 0 0 0
539 0 0 0
557 0 0 0
558 0 0 0
559 0 0 0
757 0 0 0
758 0 0 0
759 0 0 0
737 0 0 0
738 0 0 0
739 0 0 0
937 0 0 0
938 0 0 0
939 0 0 0
957 0 0 0
958 0 0 0
959 0 0 0
1157 0 0 0
1158 0 0 0
1159 0 0 0
1137 0 0 0
1138 0 0 0
1139 0 0 0
1337 0 0 0
1338 0 0 0
1339 0 0 0
1357 0 0 0
1358 0 0 0
1359 0 0 0
1537 0 0 0
1538 0 0 0
1539 0 0 0
1557 0 0 0
1558 0 0 0
1559 0 0 0
1757 0 0 0
1758 0 0 0
1759 0 0 0
1737 0 0 0
1738 0 0 0
1739 0 0 0
1937 0 0 0
1938 0 0 0
1939 0 0 0
1957 0 0 0
1958 0 0 0
1959 0 0 0
177 0 0 0
178 0 0 0
179 0 0 0
197 0 0 0
198 0 0 0
199 0 0 0
397 0 0 0
398 0 0 0
399 0 0 0
377 0 0 0
378 0 0 0
379 0 0 0
577 0 0 0
578 0 0 0
579 0 0 0
597 0 0 0
598 0 0 0
599 0 0 0
777 0 0 0
778 0 0 0
779 0 0 0
797 0 0 0
798 0 0 0
799 0 0 0
997 0 0 0
998 0 0 0
999 0 0 0
977 0 0 0
978 0 0 0
979 0 0 0
1177 0 0 0
1178 0 0 0
1179 0 0 0
1197 0 0 0
1198 0 0 0
1199 0 0 0
1397 0 0 0
1398 0 0 0
1399 0 0 0
1377 0 0 0
1378 0 0 0
1379 0 0 0
1577 0 0 0
1578 0 0 0
1579 0 0 0
1597 0 0 0
1598 0 0 0
1599 0 0 0
1777 0 0 0
1778 0 0 0
1779 0 0 0
1797 0 0 0
1798 0 0 0
1799 0 0 0
1997 0 0 0
1998 0 0 0
1999 0 0 0
1977 0 0 0
1978 0 0 0
1979 0 0 0
40 0 0 0
20 0 0 0
220 0 0 0
240 0 0 0
440 0 0 0
420 0 0 0
620 0 0 0
640 0 0 0
820 0 0 0
840 0 0 0
1040 0 0 0
1020 0 0 0
1220 0 0 0
1240 0 0 0
1440 0 0 0
1420 0 0 0
1620 0 0 0
1640 0 0 0
1820 0 0 0
1840 0 0 0
60 0 0 0
80 0 0 0
280 0 0 0
260 0 0 0
460 0 0 0
480 0 0 0
680 0 0 0
660 0 0 0
860 0 0 0
880 0 0 0
1060 0 0 0
1080 0 0 0
1280 0 0 0
1260 0 0 0
1460 0 0 0
1480 0 0 0
1680 0 0 0
1660 0 0 0
1860 0 0 0
1880 0 0 0
100 0 0 0
120 0 0 0
300 0 0 0
320 0 0 0
520 0 0 0
500 0 0 0
700 0 0 0
720 0 0 0
920 0 0 0
900 0 0 0
1100 0 0 0
1120 0 0 0
1300 0 0 0
1320 0 0 0
1520 0 0 0
1500 0 0 0
1700 0 0 0
1720 0 0 0
1920 0 0 0
1900 0 0 0
160 0 0 0
140 0 0 0
340 0 0 0
360 0 0 0
540 0 0 0
560 0 0 0
760 0 0 0
740 0 0 0
940 0 0 0
960 0 0 0
1160 0 0 0
1140 0 0 0
1340 0 0 0
1360 0 0 0
1540 0 0 0
1560 0 0 0
1760 0 0 0
1740 0 0 0
1940 0 0 0
1960 0 0 0
180 0 0 0
200 0 0 0
400 0 0 0
380 0 0 0
580 0 0 0
600 0 0 0
780 0 0 0
800 0 0 0
1000 0 0 0
980 0 0 0
1180 0 0 0
1200 0 0 0
1400 0 0 0
1380 0 0 0
1580 0 0 0
1600 0 0 0
1780 0 0 0
1800 0 0 0
2000 0 0 0
1980 0 0 0
